%nprocshared=4
%mem=6000MB
%chk=AT3_1ginp017.chk
# m062x/def2tzvp int=ultrafine scrf=(solvent=chloroform)

AT3_1ginp017

0 1
C  2.091735  2.744660  0.005563
C  2.199455  1.702242  1.125209
C  1.894464  0.243602  0.697910
C  2.923343  -0.350953  -0.299405
C  2.672116  -1.858384  -0.490764
O  3.505352  -2.442592  -1.494986
N  0.543390  0.051186  0.137628
C  -0.562608  0.354942  1.052596
C  -4.379099  -0.359140  -0.885122
C  -3.601041  0.738718  -1.258570
C  -2.387825  0.930350  -0.612519
C  -1.895538  0.092977  0.390045
C  -2.713406  -0.989831  0.715858
C  -3.940343  -1.234347  0.108418
H  -5.332423  -0.533259  -1.372800
H  -3.916461  1.432831  -2.028820
H  -4.526007  -2.093206  0.415144
F  -1.617891  1.990736  -0.974964
F  -2.294942  -1.840147  1.681480
H  2.792105  2.544503  -0.812529
H  1.082558  2.777755  -0.419623
H  2.313507  3.745490  0.389051
H  3.198296  1.740257  1.572752
H  1.510241  1.976975  1.932691
H  2.756321  0.129024  -1.277727
H  1.611878  -2.030077  -0.704449
H  2.916357  -2.389212  0.437709
H  3.230489  -2.071850  -2.344663
H  -0.467989  -0.291290  1.929300
H  -0.561184  1.394511  1.417940
H  1.937070  -0.369544  1.611482
C  4.382955  -0.111052  0.109319
H  4.561849  -0.447763  1.138019
H  5.042581  -0.683165  -0.548058
H  4.669825  0.941857  0.044668
H  0.444688  0.630579  -0.693474

