%nprocshared=4
%mem=6000MB
%chk=AT3_1ginp018.chk
# m062x/def2tzvp int=ultrafine scrf=(solvent=chloroform)

AT3_1ginp018

0 1
C  2.132721  2.800805  -0.487157
C  2.427006  1.858701  0.686926
C  2.072973  0.369951  0.440405
C  3.091828  -0.335965  -0.503609
C  2.476722  -1.547745  -1.234034
O  1.800803  -2.441258  -0.359491
N  0.686663  0.141555  -0.018799
C  -0.353521  0.568781  0.928662
C  -4.254096  -0.597707  -0.559036
C  -3.394665  -1.563845  -0.031160
C  -2.155042  -1.154428  0.440612
C  -1.719344  0.172834  0.424027
C  -2.616233  1.091005  -0.123928
C  -3.871277  0.742629  -0.610524
H  -5.228247  -0.893070  -0.934267
H  -3.668274  -2.611358  0.017788
H  -4.519048  1.509639  -1.018776
F  -1.317152  -2.085382  0.956094
F  -2.240347  2.391428  -0.182921
H  1.061597  2.848296  -0.712761
H  2.457299  3.818882  -0.251309
H  2.652670  2.495823  -1.401555
H  3.489806  1.922190  0.948376
H  1.884891  2.213896  1.571643
H  3.403390  0.372866  -1.284150
H  3.276842  -2.118777  -1.719373
H  1.802861  -1.200905  -2.031493
H  1.032251  -1.918594  -0.061625
H  -0.158328  0.059380  1.878654
H  -0.350556  1.647098  1.131907
H  2.135181  -0.143549  1.409338
C  4.336734  -0.766201  0.287745
H  4.080440  -1.589971  0.962298
H  5.126479  -1.114809  -0.386052
H  4.750685  0.049658  0.888808
H  0.531653  0.605178  -0.912070

