%nprocshared=4
%mem=6000MB
%chk=AT3_1ginp003.chk
# m062x/def2tzvp int=ultrafine scrf=(solvent=chloroform)

AT3_1ginp003

0 1
C  -2.252625  3.043578  -0.296331
C  -2.831873  1.717406  0.212942
C  -2.191817  0.473935  -0.432347
C  -3.012394  -0.822801  -0.190735
C  -3.007102  -1.261731  1.287376
O  -1.732585  -1.710411  1.728097
N  -0.788815  0.318892  0.053645
C  0.210609  0.128417  -1.014299
C  4.207932  -0.092809  0.643926
C  3.597422  -1.253619  0.168286
C  2.313367  -1.160836  -0.356836
C  1.603910  0.038061  -0.443073
C  2.264105  1.162225  0.055607
C  3.542703  1.134203  0.593630
H  5.208593  -0.144004  1.059774
H  4.093398  -2.216665  0.200588
H  3.993085  2.048830  0.961065
F  1.720839  -2.286208  -0.817020
F  1.597640  2.346042  0.013307
H  -2.425770  3.159194  -1.371876
H  -2.719198  3.893329  0.211204
H  -1.172370  3.116977  -0.127867
H  -2.720040  1.659477  1.303548
H  -3.909858  1.696731  0.015946
H  -4.053494  -0.579765  -0.447943
H  -3.708296  -2.096038  1.416651
H  -3.379090  -0.438839  1.920682
H  -1.102974  -1.073687  1.323853
H  -0.015421  -0.795371  -1.547000
H  0.174404  0.946878  -1.750207
H  -2.174665  0.649451  -1.520783
C  -2.560324  -1.978214  -1.096471
H  -1.565185  -2.332760  -0.815313
H  -3.244967  -2.828348  -1.004232
H  -2.539776  -1.677413  -2.149673
H  -0.525770  1.157686  0.564649

