%nprocshared=4
%mem=6000MB
%chk=AT3_1ginp020.chk
# m062x/def2tzvp int=ultrafine scrf=(solvent=chloroform)

AT3_1ginp020

0 1
C  2.084061  -2.131983  2.109801
C  2.539365  -0.763391  1.594988
C  1.898793  -0.380018  0.246767
C  2.583517  0.833399  -0.455378
C  4.015593  0.528030  -0.904113
O  3.999547  -0.614943  -1.758336
N  0.451026  -0.211938  0.461246
C  -0.368858  -0.138971  -0.752038
C  -4.564000  0.282920  0.278841
C  -4.104012  -0.927419  -0.239913
C  -2.755983  -1.044067  -0.562136
C  -1.833862  -0.008982  -0.401916
C  -2.354101  1.174740  0.124491
C  -3.686834  1.352828  0.468398
H  -5.611487  0.393645  0.538712
H  -4.764777  -1.772421  -0.395248
H  -4.016247  2.303028  0.872451
F  -2.317737  -2.219939  -1.067982
F  -1.489577  2.206337  0.314566
H  2.509042  -2.346564  3.095981
H  0.994455  -2.168674  2.185678
H  2.399585  -2.931446  1.429452
H  2.297258  0.006541  2.340066
H  3.630838  -0.758561  1.496721
H  2.020544  1.018924  -1.379979
H  4.663988  0.358557  -0.030774
H  4.416289  1.406132  -1.434724
H  4.913137  -0.819321  -1.995861
H  -0.104330  0.697176  -1.419872
H  -0.218663  -1.059817  -1.321538
H  2.013534  -1.233443  -0.432864
C  2.554189  2.125264  0.375131
H  1.531071  2.397533  0.653729
H  3.140307  2.033913  1.295927
H  2.965062  2.963982  -0.196706
H  0.285439  0.622230  1.020024

