%nprocshared=4
%mem=6000MB
%chk=AT3_2ginp012.chk
# m062x/def2tzvp int=ultrafine scrf=(solvent=chloroform)

AT3_2ginp012

0 1
C  1.560061  3.372042  -0.292208
C  2.379459  2.221121  0.303559
C  1.985347  0.835226  -0.239292
C  2.996669  -0.271437  0.161814
C  2.666241  -1.572830  -0.574029
O  3.706789  -2.520806  -0.326854
N  0.612545  0.460978  0.168753
C  -0.349474  0.325621  -0.931484
C  -4.224246  -0.789009  0.657297
C  -3.289932  -1.781638  0.354992
C  -2.057752  -1.395058  -0.156875
C  -1.706372  -0.065754  -0.400503
C  -2.675418  0.881469  -0.067392
C  -3.924780  0.557743  0.447972
H  -5.192483  -1.067662  1.059766
H  -3.499805  -2.833436  0.511039
H  -4.631451  1.346389  0.678721
F  -1.150369  -2.355122  -0.452973
F  -2.373227  2.189684  -0.260048
H  1.859019  4.331815  0.140759
H  1.701285  3.436453  -1.376939
H  0.487639  3.247823  -0.105869
H  3.444558  2.388604  0.101398
H  2.273680  2.223145  1.396488
H  3.986071  0.050428  -0.195605
H  2.580998  -1.371052  -1.654918
H  1.693567  -1.951109  -0.229409
H  3.404563  -3.377801  -0.653630
H  -0.453007  1.240340  -1.535332
H  0.005571  -0.463333  -1.600356
H  2.008986  0.904175  -1.338380
C  3.071272  -0.502539  1.676625
H  2.074753  -0.724014  2.073000
H  3.724753  -1.350217  1.895871
H  3.463532  0.372389  2.204281
H  0.251560  1.135861  0.837009

