%nprocshared=4
%mem=6000MB
%chk=AT3_2ginp001.chk
# m062x/def2tzvp int=ultrafine scrf=(solvent=chloroform)

AT3_2ginp001

0 1
C  -3.960526  -1.851427  -1.174925
C  -2.574754  -1.673818  -0.543280
C  -2.079347  -0.213701  -0.469293
C  -2.984172  0.729608  0.368022
C  -2.529983  2.196477  0.223987
O  -1.287022  2.469685  0.852853
N  -0.673398  -0.105640  0.003973
C  0.345158  -0.535920  -0.970954
C  4.331003  0.074274  0.620830
C  3.799227  1.002193  -0.275289
C  2.518467  0.786865  -0.770792
C  1.736813  -0.317811  -0.427575
C  2.319998  -1.206639  0.477059
C  3.592079  -1.045021  1.008919
H  5.327790  0.225053  1.021603
H  4.353215  1.879290  -0.588897
H  3.980665  -1.777574  1.706670
F  2.002214  1.686553  -1.638409
F  1.585473  -2.282797  0.854717
H  -4.199741  -2.913401  -1.288840
H  -4.751186  -1.401332  -0.567076
H  -4.003828  -1.393983  -2.169975
H  -2.568114  -2.111156  0.463427
H  -1.849850  -2.252588  -1.127643
H  -3.986138  0.678297  -0.078720
H  -3.276752  2.853729  0.686995
H  -2.499114  2.453951  -0.850010
H  -0.720421  1.712451  0.587031
H  0.241955  -1.590939  -1.260815
H  0.217817  0.065412  -1.874048
H  -2.076110  0.187917  -1.492998
C  -3.098672  0.332487  1.847974
H  -2.134909  0.417705  2.358395
H  -3.795146  1.001615  2.364053
H  -3.468831  -0.689154  1.975217
H  -0.562273  -0.662498  0.850128

