%nprocshared=4
%mem=6000MB
%chk=AT3_2ginp003.chk
# m062x/def2tzvp int=ultrafine scrf=(solvent=chloroform)

AT3_2ginp003

0 1
C  -0.787830  2.592005  1.426916
C  -1.894842  1.617405  1.001238
C  -1.363270  0.293253  0.421043
C  -2.405781  -0.858946  0.393822
C  -3.656266  -0.518779  -0.435657
O  -3.372640  -0.281120  -1.806711
N  -0.867252  0.552593  -0.956576
C  0.197268  -0.337124  -1.444942
C  3.918894  -0.222366  0.804293
C  3.201509  -1.415531  0.722781
C  2.011953  -1.426715  0.002025
C  1.493909  -0.307479  -0.651991
C  2.257435  0.855449  -0.529892
C  3.448660  0.933472  0.176454
H  4.848734  -0.190477  1.362175
H  3.543680  -2.324531  1.203772
H  3.984718  1.874087  0.225606
F  1.317314  -2.586867  -0.072371
F  1.786959  1.978141  -1.137358
H  -1.215589  3.531656  1.789654
H  -0.183162  2.165649  2.234719
H  -0.105432  2.840562  0.606672
H  -2.524096  1.403775  1.870845
H  -2.547277  2.093877  0.258518
H  -1.920685  -1.709548  -0.104952
H  -4.172141  0.344105  0.021411
H  -4.358919  -1.360916  -0.385358
H  -2.503742  0.178177  -1.805268
H  -0.176284  -1.361631  -1.468184
H  0.405823  -0.052090  -2.481360
H  -0.533292  -0.039570  1.067925
C  -2.791585  -1.321520  1.806001
H  -3.389572  -0.572947  2.336913
H  -3.385026  -2.240163  1.760843
H  -1.903135  -1.528357  2.412103
H  -0.531499  1.508936  -1.021302

