%nprocshared=2
%mem=6000MB
%chk=AT3_1ginp011.chk
# mPW1PW91/6-311g(d) geom=checkpoint nmr=giao scrf=(solvent=chloroform)

AT3_1ginp011

0 1

