%nprocshared=2
%mem=6000MB
%chk=P_ng_2ginp002.chk
# b3lyp/6-31g(d,p) Opt=(maxcycles=50) scrf=(solvent=chloroform)

P_ng_2ginp002

0 1
C  2.416908  -0.252938  0.576081
C  0.967206  -0.723754  0.765246
C  -0.039320  0.409068  0.417833
C  0.225231  0.813784  -1.040158
C  1.675681  1.107726  -1.374685
H  2.661909  0.450331  1.381429
H  0.763731  -1.519938  0.039033
H  -0.067101  -0.008122  -1.704923
H  -0.358583  1.689440  -1.328874
O  2.642413  0.492246  -0.662828
O  1.999119  1.821387  -2.301023
C  3.478912  -1.359787  0.581400
C  3.308907  -2.436222  -0.494610
C  0.774290  -1.308123  2.172773
O  -1.367913  -0.074180  0.594207
Si  -2.506861  -0.901311  -0.327368
C  -3.244425  0.212924  -1.659873
C  -1.801803  -2.465348  -1.118278
C  -3.831980  -1.362874  0.924857
H  -2.608761  -3.021181  -1.610521
H  -1.043312  -2.257788  -1.880337
H  -1.354954  -3.127886  -0.369430
H  -4.662224  -1.887002  0.438506
H  -3.430560  -2.019680  1.703621
H  -4.239812  -0.472754  1.414995
H  -4.087575  -0.292054  -2.145750
H  -3.621340  1.145667  -1.227012
H  -2.523583  0.474581  -2.440858
H  -0.286933  -1.478987  2.364095
H  1.294771  -2.263896  2.275465
H  1.156133  -0.638360  2.950537
H  3.493321  -1.814443  1.577856
H  4.449880  -0.868100  0.455254
H  2.406429  -3.036261  -0.341494
H  3.254709  -1.987769  -1.490996
H  4.161974  -3.120994  -0.482444
C  0.098393  1.636313  1.360066
C  -0.897183  2.730785  1.087699
C  -0.579614  3.987765  0.773125
H  1.113133  2.044125  1.292654
H  -0.039674  1.277013  2.387016
H  -1.944492  2.447579  1.172214
H  -1.342022  4.742131  0.601455
H  0.454812  4.311168  0.679959

