%nprocshared=2
%mem=6000MB
%chk=P_ng_correct1ginp007.chk
# b3lyp/6-31g(d,p) Opt=(maxcycles=50) scrf=(solvent=chloroform)

P_ng_correct1ginp007

0 1
C  1.0788765867  -0.1760319556  0.7939599535
C  -0.4233848671  -0.3039816895  0.5087935587
C  -1.205542338  0.8641816273  1.1766714666
C  -0.6778842725  2.1455484146  0.5078033683
C  0.8330366507  2.2893877786  0.497381106
H  1.2639651389  -0.3982535217  1.85292795
H  -0.5728699186  -0.159314021  -0.5703868854
H  -1.0031303078  2.1531646845  -0.539196337
H  -1.0757144695  3.0505381168  0.9720453286
O  1.5937864236  1.1797744833  0.5907567122
O  1.384814505  3.3701398027  0.3709426849
C  1.9616119361  -1.0845382821  -0.0646842806
C  3.4549961036  -0.976243308  0.2587322401
C  -0.9422903638  -1.7081691953  0.8544906466
O  -2.5775128358  0.6647096537  0.8515205193
Si  -4.0173245612  1.5316940344  0.9578075282
C  -5.2231493479  0.4851577052  -0.036759487
C  -4.6205861954  1.6798956745  2.7403783595
C  -3.8982675612  3.2569115571  0.2012559063
H  -4.6928121987  0.7009112484  3.2251392484
H  -3.9724898328  2.3129974611  3.3552197755
H  -5.6210139945  2.1286526368  2.7515018061
H  -3.2885196981  3.9431333779  0.7973120728
H  -3.4870146784  3.2312741447  -0.8130036276
H  -4.9044376038  3.6883514653  0.1382074005
H  -4.9057310791  0.3999392118  -1.0812240093
H  -5.3014283954  -0.5272941242  0.3730187162
H  -6.2247476106  0.9292494192  -0.0253490416
H  -0.5732947585  -2.4441446978  0.1354780913
H  -0.6382120942  -2.0244073749  1.8549281674
H  -2.0326498413  -1.7158245289  0.8091757956
H  1.783694305  -0.8436652838  -1.1204476708
H  1.6322723144  -2.1176578794  0.0847755127
H  4.0351199057  -1.6526101134  -0.3761716046
H  3.8216352476  0.0403731332  0.098740861
H  3.6533198945  -1.2460570706  1.3021650873
C  -1.020900657  0.9963907145  2.7138743063
C  -1.4775648953  -0.1562570587  3.5659133955
C  -0.7813509615  -0.6664139424  4.5834617359
H  -1.588399836  1.8911248651  3.0064207973
H  0.0268828875  1.2258174715  2.9400008042
H  -2.4631765743  -0.5578019249  3.3401088087
H  -1.1743217459  -1.4742359761  5.1937652166
H  0.2051155949  -0.2916727337  4.847823016

