%nprocshared=2
%mem=6000MB
%chk=P_ng_3ginp005.chk
# b3lyp/6-31g(d,p) Opt=(maxcycles=50) scrf=(solvent=chloroform)

P_ng_3ginp005

0 1
C  -2.147592  -0.780463  -0.774269
C  -1.077048  0.236720  -1.205897
C  -0.007613  0.495631  -0.105344
C  -0.641742  0.276236  1.301666
C  -2.153019  0.353754  1.380145
H  -2.934313  -0.777540  -1.536723
H  -1.629296  1.179005  -1.307853
H  -0.375304  -0.734701  1.624890
H  -0.238779  0.963912  2.047220
O  -2.850325  -0.258052  0.399824
O  -2.752122  0.883851  2.293655
C  -1.713689  -2.233986  -0.559382
C  -2.875766  -3.154548  -0.171861
C  -0.482960  -0.099589  -2.577968
O  1.048424  -0.446468  -0.282156
Si  2.638611  -0.582653  0.256935
C  3.797028  0.537031  -0.726672
C  2.810166  -0.211186  2.100974
C  3.064773  -2.383122  -0.082874
H  2.567015  0.827317  2.348631
H  2.171645  -0.860814  2.708678
H  3.847288  -0.384478  2.411743
H  4.102692  -2.598035  0.194751
H  2.418076  -3.058864  0.486344
H  2.946924  -2.622161  -1.144951
H  4.839088  0.313052  -0.469484
H  3.680431  0.376937  -1.803855
H  3.628650  1.599197  -0.524313
H  0.162474  0.708570  -2.933143
H  0.114463  -1.012082  -2.547432
H  -1.282755  -0.228615  -3.314816
H  -0.916025  -2.293849  0.186111
H  -1.270818  -2.580435  -1.500025
H  -2.530925  -4.187144  -0.062673
H  -3.328194  -2.846331  0.774639
H  -3.661229  -3.143222  -0.935893
C  0.547470  1.943703  -0.224122
C  -0.461648  3.039979  -0.010796
C  -0.739701  3.998681  -0.896319
H  1.022533  2.059178  -1.203717
H  1.339591  2.045412  0.530239
H  -0.982019  3.044772  0.947030
H  -1.466137  4.776996  -0.682660
H  -0.245396  4.043383  -1.864080

