%nprocshared=2
%mem=6000MB
%chk=AT3_1ginp016.chk
# mPW1PW91/6-311g(d) geom=checkpoint nmr=giao scrf=(solvent=chloroform)

AT3_1ginp016

0 1

