%nprocshared=2
%mem=6000MB
%chk=AT3_1ginp003.chk
# mPW1PW91/6-311g(d) geom=checkpoint nmr=giao scrf=(solvent=chloroform)

AT3_1ginp003

0 1

