%mem=6000MB
%chk=IP1_3ginp004.chk
# mPw1PW91/6-311g(d) nmr=giao scrf=(solvent=chloroform)

IP1_3ginp004

0 1
C  -0.112027  0.566194  -0.158359
C  -1.522052  0.200998  0.319546
C  -1.824374  0.969399  1.649711
C  -1.683696  2.469236  1.359527
C  -0.469496  2.871187  0.565060
H  0.631841  0.266554  0.587521
H  -1.575275  -0.876287  0.519339
H  -2.563427  2.847095  0.824811
H  -1.628565  3.023176  2.302693
O  0.033958  1.991689  -0.324183
O  -0.012270  4.008255  0.647960
C  0.330596  -0.077066  -1.482365
C  0.334599  -1.596721  -1.453020
C  -2.585036  0.467291  -0.768866
O  -3.189541  0.617518  1.969447
Si  -4.139982  1.093408  3.260848
C  -3.955150  -0.096476  4.709027
C  -3.814387  2.828346  3.887625
C  -5.953701  1.030387  2.721900
H  -4.529964  3.087740  4.674175
H  -2.810389  2.914284  4.312322
H  -3.920608  3.562943  3.084272
H  -6.217256  0.020695  2.394099
H  -6.609153  1.310110  3.551666
H  -6.126405  1.721887  1.892183
H  -4.680225  0.141703  5.492988
H  -4.127774  -1.126235  4.382927
H  -2.953577  -0.033303  5.142699
H  -3.596094  0.257611  -0.406288
H  -2.561132  1.500757  -1.127206
H  -2.429483  -0.185397  -1.633724
H  1.345546  0.272215  -1.714333
H  -0.285538  0.283656  -2.314220
H  0.753138  -1.988902  -2.385471
H  0.944649  -1.971295  -0.624982
H  -0.676125  -2.001151  -1.348580
C  -0.842110  0.563205  2.802957
C  -0.730408  -0.920434  3.046079
C  0.425293  -1.596748  3.060849
H  -1.167463  1.018895  3.745159
H  0.154379  0.981392  2.614324
H  -1.656814  -1.463631  3.224195
H  0.437791  -2.667062  3.246442
H  1.381235  -1.108260  2.898748

