%mem=6000MB
%chk=IP1_1ginp011.chk
# mPw1PW91/6-311g(d) nmr=giao scrf=(solvent=chloroform)

IP1_1ginp011

0 1
C  1.189434  -0.080827  1.062405
C  -0.275920  -0.348490  0.706358
C  -1.164304  0.864481  1.134384
C  -0.627693  2.053249  0.320596
C  0.854798  2.273256  0.412297
H  1.307528  -0.062076  2.152343
H  -0.364383  -0.399228  -0.389351
H  -0.879245  1.941126  -0.741581
H  -1.097317  2.981083  0.661309
O  1.651066  1.203668  0.590839
O  1.336528  3.390995  0.246887
C  2.189135  -1.129859  0.541692
C  2.221034  -1.269163  -0.975215
C  -0.750369  -1.721626  1.202823
O  -2.490760  0.510583  0.681273
Si  -3.923105  1.367522  0.786609
C  -3.758265  3.218174  0.544638
C  -5.089917  0.738535  -0.567927
C  -4.789091  1.068198  2.430899
H  -4.650933  0.910258  -1.554921
H  -5.267378  -0.333939  -0.446841
H  -6.050181  1.259714  -0.516855
H  -5.790866  1.508120  2.418973
H  -4.888475  -0.004034  2.623019
H  -4.232105  1.519890  3.256011
H  -3.191278  3.674943  1.360577
H  -3.260566  3.447592  -0.401956
H  -4.746855  3.687532  0.525218
H  -0.450192  -1.913602  2.235855
H  -1.835658  -1.835852  1.128049
H  -0.310220  -2.518368  0.592859
H  1.987972  -2.107624  0.992608
H  3.196444  -0.836586  0.864603
H  2.416637  -0.308698  -1.461614
H  3.016506  -1.961816  -1.269068
H  1.278934  -1.668162  -1.361623
C  -1.110413  1.222314  2.657465
C  -1.480514  0.130996  3.623736
C  -0.735376  -0.220096  4.680029
H  -1.793682  2.057564  2.853879
H  -0.113696  1.603931  2.912220
H  -2.419034  -0.391678  3.451184
H  -1.060116  -1.013338  5.347384
H  0.204904  0.271298  4.910835

