%mem=6000MB
%chk=IP1_2ginp017.chk
# mPw1PW91/6-311g(d) nmr=giao scrf=(solvent=chloroform)

IP1_2ginp017

0 1
C  -0.123671  0.183249  0.990949
C  -1.648615  -0.029316  1.089605
C  -2.339878  1.184114  1.791281
C  -1.643037  1.415406  3.136870
C  -0.140349  1.432541  3.082670
H  0.328618  -0.783512  0.733997
H  -2.033978  -0.121924  0.065138
H  -1.966243  2.360368  3.584915
H  -1.912364  0.629827  3.853644
O  0.461848  0.554272  2.254151
O  0.515546  2.106680  3.872355
C  0.336207  1.176746  -0.088397
C  1.832137  1.061169  -0.365010
C  -1.896893  -1.382080  1.787543
O  -2.207217  2.289284  0.871699
Si  -2.466638  3.927696  1.110631
C  -3.967882  4.349296  2.148136
C  -0.963717  4.751453  1.886875
C  -2.721753  4.735187  -0.584077
H  -1.074735  5.839844  1.868250
H  -0.840476  4.444130  2.928366
H  -0.054008  4.491315  1.338352
H  -1.848308  4.564397  -1.219964
H  -3.600521  4.309765  -1.077209
H  -2.869548  5.813428  -0.475252
H  -4.096315  5.434735  2.205627
H  -4.877830  3.928788  1.710425
H  -3.863387  3.973298  3.169664
H  -1.377837  -2.187297  1.254761
H  -1.535696  -1.388427  2.820119
H  -2.954802  -1.653707  1.792646
H  0.156063  2.207271  0.225650
H  -0.209155  1.000739  -1.022043
H  2.127729  1.775471  -1.140068
H  2.420008  1.275476  0.532995
H  2.090113  0.056651  -0.715113
C  -3.858918  0.898871  2.048377
C  -4.669623  0.621488  0.806727
C  -5.456421  -0.449172  0.640453
H  -4.319408  1.758999  2.542012
H  -3.971605  0.074920  2.764014
H  -4.610266  1.356182  0.005526
H  -6.019429  -0.585011  -0.278391
H  -5.563380  -1.208935  1.408254

