%mem=6000MB
%chk=IP1_1ginp001.chk
# mPw1PW91/6-311g(d) nmr=giao scrf=(solvent=chloroform)

IP1_1ginp001

0 1
C  0.826286  -0.403664  0.374184
C  -0.707454  -0.454926  0.510015
C  -1.207755  0.600334  1.537013
C  -0.705156  1.966013  1.060666
C  0.783664  2.013653  0.918193
H  1.291366  -0.914479  1.226173
H  -1.134246  -0.187514  -0.464716
H  -1.111515  2.229836  0.078237
H  -1.020200  2.761999  1.744408
O  1.374549  0.935802  0.364177
O  1.427674  3.025022  1.177013
C  1.318916  -1.096344  -0.910562
C  2.839680  -1.119591  -1.018532
C  -1.198530  -1.879218  0.813825
O  -2.643453  0.501867  1.672400
Si  -3.846960  1.186349  0.736521
C  -3.995181  3.035181  1.037098
C  -3.617615  0.880765  -1.099888
C  -5.502010  0.409821  1.225500
H  -2.722102  1.380730  -1.478406
H  -3.528678  -0.190128  -1.305077
H  -4.476614  1.262523  -1.660117
H  -5.480504  -0.669793  1.051046
H  -5.706029  0.586966  2.285411
H  -6.316144  0.842090  0.636665
H  -4.063272  3.244771  2.108655
H  -3.133697  3.574468  0.634777
H  -4.894082  3.429479  0.553582
H  -0.995097  -2.552792  -0.024157
H  -0.706250  -2.295412  1.698365
H  -2.279282  -1.907748  0.981659
H  0.923972  -0.567944  -1.786840
H  0.957915  -2.128305  -0.956598
H  3.143694  -1.656541  -1.922801
H  3.254006  -0.108395  -1.076302
H  3.284982  -1.627156  -0.157017
C  -0.667139  0.288472  2.976848
C  -1.053590  1.311111  4.016783
C  -0.179658  2.071259  4.688535
H  0.422123  0.174118  2.974314
H  -1.080701  -0.667652  3.322051
H  -2.117181  1.414392  4.225806
H  -0.522558  2.788204  5.428744
H  0.890846  2.007960  4.516332

