%mem=6000MB
%chk=IP1_1ginp009.chk
# mPw1PW91/6-311g(d) nmr=giao scrf=(solvent=chloroform)

IP1_1ginp009

0 1
C  0.879426  -0.404351  0.319225
C  -0.644751  -0.447975  0.542624
C  -1.093304  0.669447  1.528331
C  -0.620837  1.999122  0.937292
C  0.859902  2.035715  0.731211
H  1.391940  -0.864056  1.173137
H  -1.126916  -0.241804  -0.421541
H  -1.069433  2.194400  -0.042858
H  -0.910118  2.840629  1.576117
O  1.423113  0.932006  0.200762
O  1.514900  3.054093  0.925898
C  1.302541  -1.171656  -0.947713
C  2.815129  -1.202395  -1.137511
C  -1.112425  -1.851506  0.959538
O  -2.519129  0.574057  1.737837
Si  -3.772898  1.226640  0.849164
C  -5.400403  0.494475  1.478785
C  -3.888177  3.089666  1.059802
C  -3.659158  0.822339  -0.979719
H  -3.875642  3.357035  2.120537
H  -3.056438  3.598927  0.566131
H  -4.818295  3.466093  0.623327
H  -2.783893  1.290805  -1.437512
H  -3.591403  -0.258900  -1.131955
H  -4.547586  1.183991  -1.506311
H  -5.398559  -0.592758  1.358870
H  -5.536275  0.727305  2.538863
H  -6.246226  0.905531  0.920211
H  -0.951801  -2.575110  0.154619
H  -0.571002  -2.212068  1.839781
H  -2.182391  -1.870658  1.187307
H  0.858806  -0.695267  -1.830438
H  0.942016  -2.204235  -0.913287
H  3.070363  -1.791711  -2.024080
H  3.223196  -0.196658  -1.277134
H  3.308277  -1.658896  -0.273488
C  -0.484649  0.441370  2.957801
C  -0.745330  1.551842  3.948084
C  -1.607681  1.459019  4.968377
H  0.601641  0.309243  2.911931
H  -0.889857  -0.490329  3.373977
H  -0.172449  2.470256  3.831679
H  -1.745589  2.286525  5.657470
H  -2.201275  0.564816  5.132706

