%mem=6000MB
%chk=IP1_2ginp002.chk
# mPw1PW91/6-311g(d) nmr=giao scrf=(solvent=chloroform)

IP1_2ginp002

0 1
C  -0.118817  0.019783  1.044956
C  -0.933716  1.174399  0.435327
C  -2.206082  1.454501  1.287226
C  -1.737401  1.742139  2.717605
C  -0.912634  0.631423  3.292860
H  -0.632302  -0.929947  0.851075
H  -0.324338  2.083072  0.478900
H  -1.109496  2.638278  2.767903
H  -2.588246  1.931358  3.381311
O  0.025455  0.098247  2.481391
O  -0.986758  0.310379  4.474100
C  1.299011  -0.143173  0.464831
C  2.209202  1.059946  0.678020
C  -1.230397  0.929548  -1.050883
O  -2.968330  2.519719  0.675672
Si  -2.791538  4.174410  0.829049
C  -3.377593  4.783421  2.507200
C  -1.031564  4.758395  0.545097
C  -3.872523  5.016930  -0.475924
H  -0.985313  5.851574  0.561928
H  -0.356785  4.382789  1.318926
H  -0.664394  4.419137  -0.428019
H  -3.787680  6.104687  -0.398585
H  -3.561212  4.713312  -1.479599
H  -4.921157  4.738220  -0.337715
H  -3.416641  5.876797  2.523952
H  -4.379674  4.402019  2.724395
H  -2.705328  4.459272  3.305824
H  -1.869542  1.712096  -1.470507
H  -0.306479  0.929787  -1.637895
H  -1.723465  -0.034438  -1.210611
H  1.252612  -0.378205  -0.603704
H  1.774181  -1.002992  0.954734
H  1.870589  1.926334  0.102852
H  2.260772  1.341944  1.733990
H  3.224614  0.822350  0.344157
C  -3.184973  0.228361  1.270612
C  -4.419075  0.411249  2.119620
C  -4.721138  -0.342793  3.184079
H  -2.674346  -0.690210  1.578012
H  -3.541884  0.060816  0.246518
H  -5.099644  1.207929  1.823455
H  -5.628814  -0.161743  3.752281
H  -4.075650  -1.148439  3.521572

