%mem=6000MB
%chk=IP1_2ginp011.chk
# mPw1PW91/6-311g(d) nmr=giao scrf=(solvent=chloroform)

IP1_2ginp011

0 1
C  -0.455962  -0.287774  1.449740
C  -0.870269  0.962442  0.668084
C  -1.875814  1.814465  1.508720
C  -1.096151  2.211466  2.772796
C  -0.442850  1.074407  3.504156
H  -1.316625  -0.958554  1.557328
H  0.015460  1.602950  0.540759
H  -0.313339  2.941795  2.532177
H  -1.768283  2.692065  3.490272
O  -0.018148  0.014854  2.792178
O  -0.227031  1.143884  4.711368
C  0.659871  -1.124683  0.797426
C  1.976313  -0.380626  0.610896
C  -1.322030  0.628159  -0.760638
O  -2.123429  2.980665  0.690976
Si  -3.082682  4.316957  0.992981
C  -2.445938  5.753933  -0.066033
C  -4.869104  4.016034  0.481753
C  -3.078438  4.909283  2.770554
H  -4.917330  3.648054  -0.547195
H  -5.346822  3.282728  1.136824
H  -5.443324  4.945599  0.540121
H  -2.059233  5.101378  3.117968
H  -3.644032  5.841998  2.860727
H  -3.544088  4.174736  3.433487
H  -3.064368  6.643239  0.085694
H  -1.414094  5.995192  0.204978
H  -2.474497  5.484938  -1.125835
H  -1.801041  1.479638  -1.252599
H  -0.458325  0.356855  -1.377886
H  -2.008413  -0.221673  -0.788558
H  0.326566  -1.521723  -0.167500
H  0.861973  -1.991107  1.440401
H  2.740772  -1.065784  0.230040
H  1.877626  0.435133  -0.110810
H  2.339325  0.034251  1.556114
C  -3.186845  1.069884  1.930053
C  -4.024167  0.492155  0.822464
C  -4.476200  -0.768620  0.803362
H  -3.833269  1.765198  2.479373
H  -2.946342  0.276518  2.648876
H  -4.282248  1.150906  -0.004108
H  -5.084060  -1.126250  -0.022869
H  -4.261495  -1.469981  1.603900

