%mem=6000MB
%chk=IP1_1ginp006.chk
# mPw1PW91/6-311g(d) nmr=giao scrf=(solvent=chloroform)

IP1_1ginp006

0 1
C  1.053756  -0.154703  0.578412
C  -0.416086  -0.517473  0.845902
C  -1.024898  0.522218  1.852865
C  -0.315405  1.890796  1.750849
C  0.305283  2.140759  0.408969
H  1.615245  -0.084065  1.518605
H  -0.949997  -0.402459  -0.102172
H  -0.987985  2.717132  1.995422
H  0.524761  1.960112  2.455256
O  1.091945  1.142895  -0.059609
O  0.177378  3.199298  -0.194198
C  1.821897  -1.120889  -0.338254
C  1.238391  -1.260732  -1.739727
C  -0.629426  -1.979774  1.252087
O  -2.459914  0.550338  1.695383
Si  -3.392846  1.353795  0.563077
C  -3.496840  3.199309  0.900617
C  -2.852681  1.088039  -1.211880
C  -5.166142  0.684927  0.692130
H  -3.537046  1.597719  -1.897189
H  -1.849180  1.481919  -1.389552
H  -2.857140  0.023696  -1.464826
H  -5.817016  1.192029  -0.025810
H  -5.180202  -0.388286  0.481715
H  -5.558915  0.849605  1.699528
H  -3.693762  3.386186  1.960304
H  -2.569324  3.707211  0.624473
H  -4.307633  3.647515  0.318191
H  0.004627  -2.263390  2.098015
H  -1.675266  -2.164305  1.519012
H  -0.393015  -2.657182  0.425548
H  1.898201  -2.109048  0.128187
H  2.847796  -0.746625  -0.449169
H  0.232446  -1.688769  -1.718894
H  1.190503  -0.294379  -2.251043
H  1.868368  -1.924782  -2.340562
C  -0.833742  0.026468  3.336420
C  -1.312846  0.999406  4.388589
C  -0.541556  1.507229  5.358158
H  0.220560  -0.221086  3.513016
H  -1.414659  -0.889924  3.499986
H  -2.364177  1.280816  4.344879
H  -0.954797  2.196598  6.088910
H  0.508490  1.249670  5.452905

