%mem=6000MB
%chk=IP1_1ginp003.chk
# mPw1PW91/6-311g(d) nmr=giao scrf=(solvent=chloroform)

IP1_1ginp003

0 1
C  1.051355  -0.232045  0.770538
C  -0.464592  -0.474553  0.749372
C  -1.232715  0.820622  1.164427
C  -0.839018  1.868020  0.113485
C  0.639203  2.073010  -0.021875
H  1.403139  -0.152297  1.806221
H  -0.760539  -0.678793  -0.291811
H  -1.220212  1.592302  -0.877539
H  -1.280294  2.839984  0.363509
O  1.436358  0.997714  0.114466
O  1.102345  3.165436  -0.336648
C  1.843008  -1.366768  0.094520
C  3.350367  -1.142037  0.144359
C  -0.855620  -1.741206  1.525889
O  -2.630684  0.463319  1.078277
Si  -3.971451  1.455006  0.948618
C  -3.945499  2.937067  2.094597
C  -4.197690  2.068130  -0.816054
C  -5.508884  0.441548  1.385698
H  -3.412955  2.778144  -1.090455
H  -4.167948  1.230627  -1.519130
H  -5.162566  2.572701  -0.923638
H  -6.410134  1.054346  1.292906
H  -5.600637  -0.417546  0.714926
H  -5.440926  0.074471  2.413858
H  -3.819968  2.623794  3.135061
H  -3.134939  3.624130  1.836679
H  -4.886768  3.490678  2.021799
H  -0.567151  -2.636934  0.965066
H  -0.355547  -1.797765  2.496087
H  -1.935388  -1.812982  1.685572
H  1.544838  -1.447209  -0.957837
H  1.627131  -2.326255  0.574990
H  3.871884  -1.993373  -0.304749
H  3.641366  -0.243762  -0.408762
H  3.696273  -1.039259  1.177767
C  -0.875925  1.354135  2.592154
C  -1.248599  0.467590  3.748978
C  -0.405691  0.116924  4.728989
H  -1.393386  2.304963  2.757645
H  0.190927  1.601390  2.648223
H  -2.276261  0.110207  3.786826
H  -0.738686  -0.519682  5.543654
H  0.625847  0.454693  4.749340

