%mem=6000MB
%chk=IP1_4ginp009.chk
# mPw1PW91/6-311g(d) nmr=giao scrf=(solvent=chloroform)

IP1_4ginp009

0 1
C  0.574636  1.904839  -0.126805
C  -0.603794  0.970986  0.232097
C  -1.576104  1.631208  1.258448
C  -1.985580  2.984765  0.667367
C  -0.825142  3.842228  0.254673
H  1.019653  1.497539  -1.044677
H  -1.159098  0.838496  -0.707375
H  -2.603796  2.860832  -0.229769
H  -2.580080  3.559977  1.381197
O  0.124484  3.227681  -0.485517
O  -0.818729  5.056870  0.426990
C  1.712995  2.037313  0.901925
C  2.913299  2.786256  0.328851
C  -0.109543  -0.418420  0.655518
O  -0.810167  1.793994  2.466352
Si  -1.317695  2.202111  4.007325
C  -2.017458  0.703576  4.906658
C  0.187919  2.785469  4.994251
C  -2.585197  3.579174  4.065746
H  -0.100476  3.039537  6.018260
H  0.946276  1.998044  5.030286
H  0.628031  3.670509  4.525721
H  -2.824769  3.832231  5.103224
H  -2.202415  4.481964  3.580795
H  -3.515477  3.286096  3.571492
H  -2.967108  0.387131  4.467252
H  -1.316372  -0.134571  4.855054
H  -2.193997  0.939569  5.960336
H  0.639825  -0.793769  -0.049858
H  0.336858  -0.412298  1.654443
H  -0.928919  -1.143510  0.664691
H  2.054320  1.053038  1.235900
H  1.381022  2.596473  1.781256
H  3.712052  2.842820  1.075338
H  3.310225  2.273774  -0.553170
H  2.647539  3.809033  0.044211
C  -2.845333  0.743106  1.494945
C  -3.634861  0.346687  0.273636
C  -4.870345  0.787089  0.002900
H  -3.520540  1.261384  2.187281
H  -2.558031  -0.175711  2.021678
H  -3.177427  -0.368104  -0.407597
H  -5.397768  0.450810  -0.885345
H  -5.387896  1.485816  0.653467

