%mem=6000MB
%chk=IP1_2ginp016.chk
# mPw1PW91/6-311g(d) nmr=giao scrf=(solvent=chloroform)

IP1_2ginp016

0 1
C  -0.404730  -0.036828  1.353951
C  -1.196521  1.112773  0.713531
C  -2.264424  1.632386  1.716597
C  -1.502174  2.117206  2.959440
C  -0.592829  1.077916  3.547842
H  -1.052489  -0.915592  1.459077
H  -0.502541  1.946175  0.555521
H  -0.865642  2.980108  2.738098
H  -2.211120  2.440014  3.732050
O  0.063525  0.271406  2.688550
O  -0.366235  1.036056  4.753076
C  0.821765  -0.504922  0.549124
C  1.882030  0.568561  0.337130
C  -1.719178  0.748966  -0.680651
O  -3.091036  2.653788  1.117351
Si  -2.771994  4.273884  0.862357
C  -1.079670  4.598215  0.122485
C  -4.049530  4.953088  -0.357027
C  -2.943026  5.264365  2.451295
H  -3.878343  6.018356  -0.536732
H  -3.981642  4.423094  -1.311483
H  -5.060235  4.824645  0.040949
H  -2.874385  6.336136  2.242006
H  -3.911216  5.068699  2.921489
H  -2.156034  5.009167  3.165704
H  -0.965617  5.660182  -0.115841
H  -0.281433  4.324782  0.817739
H  -0.944889  4.028629  -0.801703
H  -2.441224  1.479989  -1.054789
H  -0.894121  0.726528  -1.401243
H  -2.183585  -0.239940  -0.701454
H  0.511867  -0.906152  -0.421844
H  1.296711  -1.331161  1.093770
H  2.760411  0.133338  -0.150649
H  1.515228  1.373535  -0.306048
H  2.207224  1.003753  1.286950
C  -3.293280  0.549971  2.209873
C  -4.156836  -0.084285  1.152627
C  -4.294731  -1.405662  0.983289
H  -3.989131  1.040473  2.905821
H  -2.791013  -0.232134  2.790944
H  -4.715848  0.593957  0.509408
H  -4.946897  -1.798525  0.208714
H  -3.774329  -2.123265  1.609873

