%mem=6000MB
%chk=IP1_2ginp001.chk
# mPw1PW91/6-311g(d) nmr=giao scrf=(solvent=chloroform)

IP1_2ginp001

0 1
C  -0.013457  0.261872  0.989481
C  -0.910931  1.370859  0.407998
C  -2.196933  1.548095  1.264379
C  -1.746442  1.847227  2.696919
C  -0.865978  0.775735  3.258916
H  -0.413132  -0.721572  0.713414
H  -0.350595  2.312451  0.464486
H  -1.168524  2.775834  2.756891
H  -2.607695  1.980986  3.360773
O  0.071549  0.266861  2.434338
O  -0.907692  0.456934  4.442652
C  1.430037  0.344698  0.457949
C  2.308805  -0.792895  0.966447
C  -1.201031  1.136529  -1.082973
O  -3.036215  2.565647  0.673238
Si  -2.973311  4.226450  0.848143
C  -3.587545  4.771753  2.538070
C  -1.260184  4.934466  0.561286
C  -4.119420  5.009110  -0.438390
H  -1.289674  6.027956  0.591067
H  -0.556292  4.597592  1.326947
H  -0.876607  4.632867  -0.417862
H  -4.109402  6.099030  -0.346888
H  -3.795202  4.740899  -1.448047
H  -5.145250  4.656723  -0.297287
H  -4.558077  4.317251  2.757832
H  -2.887177  4.486800  3.327458
H  -3.704210  5.859281  2.568960
H  -1.895394  1.881727  -1.482407
H  -0.286165  1.211797  -1.678503
H  -1.628681  0.144610  -1.259550
H  1.883643  1.291996  0.774048
H  1.441507  0.321707  -0.636001
H  2.415514  -0.762534  2.055122
H  1.890406  -1.764960  0.686881
H  3.310385  -0.717000  0.531108
C  -3.083753  0.253951  1.227079
C  -4.316923  0.324872  2.093601
C  -4.549449  -0.475280  3.141705
H  -2.502335  -0.632195  1.503253
H  -3.440830  0.086452  0.202964
H  -5.057440  1.076693  1.825303
H  -5.460491  -0.375305  3.724380
H  -3.842557  -1.239477  3.451456

