%mem=6000MB
%chk=IP1_3ginp007.chk
# mPw1PW91/6-311g(d) nmr=giao scrf=(solvent=chloroform)

IP1_3ginp007

0 1
C  -0.276534  0.367771  -0.331516
C  -1.563770  -0.060687  0.385739
C  -1.749511  0.807675  1.673131
C  -1.807930  2.273183  1.223234
C  -0.693169  2.689985  0.302823
H  0.588177  0.148419  0.304889
H  -1.477463  -1.116030  0.674293
H  -2.748152  2.494065  0.706005
H  -1.772043  2.935448  2.096228
O  -0.247984  1.784902  -0.593936
O  -0.282322  3.846676  0.287590
C  -0.039554  -0.363803  -1.662920
C  1.350447  -0.092961  -2.228115
C  -2.793278  -0.001647  -0.546868
O  -2.977222  0.332063  2.265656
Si  -3.985056  1.092067  3.362284
C  -3.098667  1.969381  4.760651
C  -5.103116  2.337693  2.498985
C  -5.110399  -0.210966  4.147545
H  -5.879582  2.691487  3.183835
H  -4.533381  3.205679  2.156622
H  -5.590322  1.878918  1.633690
H  -4.512949  -0.954114  4.683531
H  -5.801704  0.256515  4.854615
H  -5.693381  -0.723387  3.376858
H  -3.824227  2.411449  5.450631
H  -2.479275  1.271796  5.330631
H  -2.461705  2.775469  4.387188
H  -3.720920  -0.222551  -0.010309
H  -2.901790  0.975333  -1.027344
H  -2.712164  -0.752234  -1.340267
H  -0.767756  -0.034832  -2.413165
H  -0.159137  -1.444074  -1.522264
H  1.489331  -0.642187  -3.164775
H  1.495395  0.971420  -2.437528
H  2.127736  -0.415715  -1.528206
C  -0.574162  0.621893  2.697079
C  -0.323502  -0.794444  3.151870
C  -0.434053  -1.209113  4.420509
H  -0.760040  1.245918  3.577728
H  0.364654  1.004798  2.280487
H  -0.009946  -1.516564  2.401828
H  -0.230880  -2.242348  4.686197
H  -0.729112  -0.538738  5.221189

