%mem=6000MB
%chk=IP1_2ginp004.chk
# mPw1PW91/6-311g(d) nmr=giao scrf=(solvent=chloroform)

IP1_2ginp004

0 1
C  -0.401189  -0.268004  1.416076
C  -1.023724  0.867398  0.593735
C  -1.946122  1.748336  1.496212
C  -1.015936  2.307379  2.583289
C  -0.257880  1.260227  3.343795
H  -1.180087  -0.990486  1.688912
H  -0.219789  1.539574  0.259287
H  -0.275185  2.991691  2.151380
H  -1.592889  2.886256  3.314085
O  0.173481  0.181130  2.663730
O  0.043444  1.424937  4.522349
C  0.691050  -1.074146  0.689095
C  1.901809  -0.252103  0.265542
C  -1.669043  0.348108  -0.698669
O  -2.440058  2.782803  0.615534
Si  -3.083840  4.279063  0.995732
C  -4.320287  4.248792  2.403150
C  -1.730641  5.517350  1.415830
C  -3.991077  4.943431  -0.526613
H  -2.147637  6.525888  1.494089
H  -1.255453  5.273661  2.369790
H  -0.961874  5.523149  0.637644
H  -4.410427  5.932431  -0.320678
H  -3.302911  5.025650  -1.372819
H  -4.806561  4.269876  -0.805512
H  -4.765598  5.239166  2.539625
H  -5.129525  3.542439  2.196571
H  -3.842465  3.966421  3.345245
H  -2.263835  1.116539  -1.200989
H  -0.897017  0.036665  -1.410926
H  -2.304668  -0.522490  -0.519043
H  0.273312  -1.583382  -0.186039
H  1.049492  -1.859142  1.367527
H  1.641171  0.477460  -0.506399
H  2.340504  0.281611  1.114075
H  2.671531  -0.910020  -0.151090
C  -3.128591  0.975586  2.170221
C  -4.166004  0.402437  1.243887
C  -4.594265  -0.865842  1.287943
H  -3.662853  1.656163  2.841506
H  -2.741348  0.184602  2.823428
H  -4.598700  1.077998  0.507895
H  -5.354390  -1.217386  0.596228
H  -4.207878  -1.579180  2.009341

