%mem=6000MB
%chk=IP1_1ginp016.chk
# mPw1PW91/6-311g(d) nmr=giao scrf=(solvent=chloroform)

IP1_1ginp016

0 1
C  0.986099  -0.098097  0.880394
C  -0.545611  -0.207745  0.902729
C  -1.149315  1.060482  1.568834
C  -0.697754  2.260143  0.721699
C  0.790094  2.338320  0.538818
H  1.375576  -0.180910  1.902313
H  -0.894421  -0.196004  -0.136178
H  -1.121509  2.230911  -0.287431
H  -1.043704  3.194776  1.180518
O  1.456308  1.176193  0.379878
O  1.363666  3.416979  0.423949
C  1.701079  -1.188899  0.061796
C  1.334600  -1.207255  -1.416995
C  -1.021412  -1.547124  1.476269
O  -2.584340  0.953739  1.691118
Si  -3.775210  1.183802  0.542021
C  -4.078100  3.012230  0.225582
C  -3.416295  0.335043  -1.091181
C  -5.393620  0.457407  1.200363
H  -2.546460  0.774846  -1.586449
H  -3.226986  -0.731792  -0.940380
H  -4.270985  0.433908  -1.767430
H  -6.200802  0.603376  0.476799
H  -5.280415  -0.614787  1.384950
H  -5.674384  0.944106  2.138821
H  -4.259004  3.538450  1.167456
H  -3.221573  3.477475  -0.269161
H  -4.953658  3.148383  -0.416342
H  -0.495637  -1.811074  2.397103
H  -2.096464  -1.552267  1.676166
H  -0.831965  -2.355013  0.760796
H  1.513115  -2.177274  0.494906
H  2.783090  -1.016730  0.128844
H  1.496473  -0.230153  -1.882151
H  1.955946  -1.937542  -1.945684
H  0.290304  -1.494993  -1.568183
C  -0.660685  1.334196  3.038463
C  -0.982433  0.275900  4.059378
C  -0.080805  -0.283406  4.876673
H  -1.157853  2.248705  3.392919
H  0.413750  1.550331  3.060421
H  -2.026853  -0.022787  4.138188
H  -0.382686  -1.032807  5.602550
H  0.968604  -0.006908  4.850770

