%mem=6000MB
%chk=IP1_4ginp006.chk
# mPw1PW91/6-311g(d) nmr=giao scrf=(solvent=chloroform)

IP1_4ginp006

0 1
C  0.691376  1.821551  -0.025201
C  -0.423657  0.906287  0.506397
C  -1.389359  1.679769  1.467684
C  -1.487948  3.161537  1.047992
C  -1.078476  3.447673  -0.368416
H  1.258542  1.241872  -0.765480
H  -0.991705  0.619895  -0.387678
H  -2.513375  3.527780  1.178173
H  -0.866284  3.807107  1.678910
O  0.083960  2.891402  -0.781664
O  -1.707354  4.218441  -1.085983
C  1.699798  2.371836  0.993393
C  2.808124  3.173581  0.319745
C  0.134362  -0.397537  1.090870
O  -0.749812  1.601939  2.766148
Si  -1.382246  2.006571  4.263803
C  0.050342  2.329854  5.453926
C  -2.445877  3.550724  4.239444
C  -2.389264  0.585969  4.974345
H  -2.798470  3.784883  5.248658
H  -1.876516  4.410569  3.874983
H  -3.323348  3.421559  3.600389
H  -1.798993  -0.335072  4.980538
H  -2.689799  0.807652  6.002753
H  -3.294606  0.409990  4.387484
H  0.663064  3.161181  5.093342
H  -0.327431  2.581627  6.449063
H  0.684005  1.442075  5.536338
H  0.749682  -0.915454  0.346979
H  0.758257  -0.230202  1.973575
H  -0.674322  -1.077848  1.374803
H  2.157366  1.550205  1.553919
H  1.216911  3.032480  1.717793
H  3.347233  2.561211  -0.409998
H  2.407436  4.052436  -0.194890
H  3.528197  3.521631  1.067226
C  -2.797259  0.990959  1.470620
C  -3.519387  0.935964  0.149329
C  -4.583937  1.688413  -0.157071
H  -3.450154  1.495000  2.192777
H  -2.704670  -0.033976  1.851461
H  -3.170290  0.213347  -0.585741
H  -5.069674  1.595193  -1.124500
H  -4.993603  2.418366  0.534453

