%mem=6000MB
%chk=IP1_3ginp009.chk
# mPw1PW91/6-311g(d) nmr=giao scrf=(solvent=chloroform)

IP1_3ginp009

0 1
C  -0.650352  0.454737  -0.554084
C  -0.816226  -0.425209  0.705984
C  -1.376782  0.389092  1.913198
C  -0.454746  1.600330  2.091858
C  -0.247126  2.394866  0.835760
H  0.007817  -0.103801  -1.233253
H  0.203133  -0.741860  0.968972
H  -0.847113  2.282661  2.849700
H  0.544696  1.298383  2.427038
O  0.059654  1.677599  -0.268212
O  -0.188317  3.620260  0.842120
C  -1.922897  0.801899  -1.348942
C  -1.596103  1.461241  -2.686304
C  -1.612010  -1.700492  0.398736
O  -2.703887  0.790027  1.525595
Si  -3.928966  1.462599  2.445143
C  -5.186373  2.253903  1.272976
C  -4.844837  0.138896  3.421396
C  -3.363409  2.795872  3.632073
H  -4.214260  -0.275904  4.212194
H  -5.739913  0.560596  3.888413
H  -5.153573  -0.677237  2.761636
H  -2.853774  3.602870  3.097512
H  -4.221848  3.229822  4.154148
H  -2.682667  2.394417  4.387737
H  -4.712063  3.047853  0.688863
H  -5.584759  1.505111  0.582295
H  -6.017783  2.685207  1.837823
H  -1.515481  -2.431054  1.207550
H  -2.678724  -1.499687  0.261035
H  -1.235955  -2.181149  -0.510958
H  -2.549886  1.505279  -0.793756
H  -2.516028  -0.095475  -1.548322
H  -2.518834  1.673619  -3.235768
H  -1.064204  2.407362  -2.546095
H  -0.976899  0.804801  -3.305838
C  -1.392914  -0.470636  3.223238
C  -0.089166  -1.104180  3.636714
C  0.604675  -0.751134  4.726491
H  -2.139391  -1.269499  3.129407
H  -1.752064  0.149843  4.053819
H  0.286805  -1.920973  3.023733
H  1.530499  -1.257904  4.983923
H  0.272023  0.042777  5.388582

