%mem=6000MB
%chk=IP1_1ginp014.chk
# mPw1PW91/6-311g(d) nmr=giao scrf=(solvent=chloroform)

IP1_1ginp014

0 1
C  0.926917  -0.299243  0.627333
C  -0.584495  -0.432441  0.868702
C  -1.031546  0.688799  1.867218
C  -0.220736  1.990801  1.671393
C  0.533272  2.082321  0.375527
H  1.479369  -0.295452  1.574642
H  -1.076019  -0.239360  -0.091030
H  -0.871987  2.868360  1.754499
H  0.559140  2.097960  2.436058
O  1.175562  0.963280  -0.027576
O  0.642337  3.134811  -0.244250
C  1.555768  -1.387450  -0.259052
C  0.984342  -1.461145  -1.670543
C  -1.017809  -1.841664  1.288997
O  -2.457625  0.915585  1.825749
Si  -3.436046  1.326588  0.535365
C  -4.903834  2.326358  1.184350
C  -2.607905  2.350998  -0.790827
C  -4.136575  -0.226272  -0.272664
H  -3.329608  2.619320  -1.568838
H  -2.206759  3.280145  -0.377015
H  -1.795934  1.799581  -1.271834
H  -4.863659  0.040566  -1.045313
H  -3.343366  -0.816675  -0.739172
H  -4.638533  -0.850160  0.472588
H  -5.458383  1.748184  1.929090
H  -4.555469  3.251760  1.652070
H  -5.583418  2.583741  0.366819
H  -0.420058  -2.217166  2.125719
H  -2.073213  -1.862437  1.578787
H  -0.903873  -2.550440  0.462775
H  1.471445  -2.367490  0.222900
H  2.628739  -1.176042  -0.353552
H  -0.075941  -1.728223  -1.665123
H  1.096386  -0.508459  -2.197241
H  1.515380  -2.225274  -2.247553
C  -0.799223  0.213551  3.354825
C  -1.120271  1.248507  4.408693
C  -0.255864  1.678523  5.336550
H  0.232895  -0.134334  3.482063
H  -1.456563  -0.637289  3.574563
H  -2.134128  1.646849  4.403286
H  -0.557233  2.420161  6.070775
H  0.761788  1.305526  5.392303

