%nprocshared=2
%mem=6000MB
%chk=AT3_1ginp009.chk
# b3lyp/6-31g(d,p) Opt=(maxcycles=100,MaxStep=1) scrf=(solvent=chloroform)

AT3_1ginp009

0 1
C  2.187260  2.964984  -0.038773
C  2.552485  1.626662  -0.695052
C  1.913467  0.406928  -0.007079
C  2.580586  -0.945379  -0.379857
C  3.939044  -1.136049  0.298039
O  3.756315  -1.138262  1.714294
N  0.476031  0.354546  -0.348462
C  -0.360944  -0.208785  0.719312
C  -4.566471  -0.063718  -0.346259
C  -3.919979  -1.297254  -0.271096
C  -2.571287  -1.322359  0.068093
C  -1.825004  -0.176185  0.346176
C  -2.527930  1.026641  0.251934
C  -3.871005  1.118646  -0.084729
H  -5.617693  -0.022282  -0.611255
H  -4.437343  -2.228709  -0.469775
H  -4.347021  2.090830  -0.138061
F  -1.952692  -2.523518  0.142097
F  -1.840122  2.172395  0.500895
H  2.639916  3.802939  -0.578306
H  1.105279  3.138670  -0.019564
H  2.541419  3.002157  0.997228
H  2.253193  1.636009  -1.750647
H  3.642863  1.519141  -0.685471
H  1.932018  -1.733868  0.025355
H  4.635781  -0.339334  -0.006961
H  4.375136  -2.089029  -0.039869
H  4.629363  -1.189329  2.124304
H  -0.067613  -1.246394  0.892177
H  -0.228048  0.322760  1.678293
H  2.044748  0.533814  1.080844
C  2.693863  -1.166761  -1.894015
H  1.730239  -0.977416  -2.373257
H  3.437613  -0.503469  -2.349877
H  2.990872  -2.196905  -2.117299
H  0.147356  1.300573  -0.520064

