%nprocshared=2
%mem=6000MB
%chk=AT3_2ginp004.chk
# b3lyp/6-31g(d,p) Opt=(maxcycles=100,MaxStep=1) scrf=(solvent=chloroform)

AT3_2ginp004

0 1
C  3.032574  2.477222  -0.464592
C  2.396969  1.580756  0.604545
C  1.597764  0.383370  0.049218
C  2.437097  -0.620774  -0.785262
C  1.528823  -1.674291  -1.451168
O  0.955618  -2.593222  -0.532689
N  0.854502  -0.347906  1.109038
C  -0.345199  0.327422  1.638801
C  -3.670279  0.155667  -1.142672
C  -3.330769  -0.972524  -0.393264
C  -2.258230  -0.882672  0.483826
C  -1.499487  0.276916  0.663827
C  -1.881869  1.368050  -0.117610
C  -2.945742  1.340510  -1.011954
H  -4.504035  0.109322  -1.835328
H  -3.876622  -1.904819  -0.478888
H  -3.185880  2.227531  -1.586470
F  -1.925933  -1.969595  1.216764
F  -1.166206  2.513929  -0.002887
H  3.504780  3.351793  -0.006017
H  3.802632  1.953040  -1.039215
H  2.278577  2.841191  -1.171784
H  3.171274  1.215901  1.291812
H  1.717621  2.192693  1.209648
H  2.886650  -0.045873  -1.605883
H  2.118842  -2.261492  -2.166025
H  0.748013  -1.152872  -2.032769
H  0.641360  -2.025740  0.204118
H  -0.633744  -0.206198  2.548360
H  -0.165275  1.373195  1.917601
H  0.834270  0.785904  -0.629080
C  3.570451  -1.293472  0.004689
H  4.261348  -0.564597  0.438814
H  3.175563  -1.919041  0.810281
H  4.152058  -1.947497  -0.653475
H  1.482753  -0.537417  1.887346

