%nprocshared=2
%mem=6000MB
%chk=AT3_1ginp005.chk
# b3lyp/6-31g(d,p) Opt=(maxcycles=100,MaxStep=1) scrf=(solvent=chloroform)

AT3_1ginp005

0 1
C  -4.254834  1.941452  -0.062588
C  -2.800614  1.692713  0.349652
C  -2.092312  0.543416  -0.394350
C  -2.787586  -0.838240  -0.242690
C  -2.750469  -1.362997  1.206381
O  -1.441811  -1.708029  1.639867
N  -0.675831  0.475048  0.075025
C  0.322484  0.396613  -1.009312
C  4.307872  -0.102001  0.617209
C  3.761801  1.177861  0.505556
C  2.482706  1.301827  -0.020873
C  1.713823  0.220499  -0.453562
C  2.307765  -1.034589  -0.307304
C  3.583291  -1.223415  0.210426
H  5.304913  -0.226556  1.026290
H  4.302592  2.063348  0.818561
H  3.985740  -2.226475  0.290200
F  1.936005  2.538723  -0.121647
F  1.603614  -2.120430  -0.703542
H  -4.914577  1.119420  0.229882
H  -4.635526  2.850450  0.413262
H  -4.343361  2.072228  -1.147008
H  -2.221050  2.606375  0.161578
H  -2.747725  1.516311  1.431626
H  -3.844395  -0.688989  -0.500678
H  -3.366328  -2.268874  1.274814
H  -3.209156  -0.622356  1.883318
H  -0.873115  -0.996709  1.271186
H  0.082899  -0.462094  -1.635998
H  0.296380  1.289196  -1.651879
H  -2.104689  0.801646  -1.466327
C  -2.223235  -1.890784  -1.210183
H  -1.200827  -2.168730  -0.942558
H  -2.827764  -2.803597  -1.174267
H  -2.228653  -1.528069  -2.244068
H  -0.470770  1.313596  0.614494

