%nprocshared=2
%mem=6000MB
%chk=AT3_2ginp010.chk
# b3lyp/6-31g(d,p) Opt=(maxcycles=100,MaxStep=1) scrf=(solvent=chloroform)

AT3_2ginp010

0 1
C  -1.155690  2.953686  -0.699867
C  -0.779475  1.493698  -0.977463
C  -1.390725  0.469178  0.001439
C  -2.943496  0.506853  0.065232
C  -3.474431  -0.472523  1.130926
O  -3.336493  -1.836719  0.758423
N  -0.925244  -0.919670  -0.276208
C  0.230613  -1.403991  0.494774
C  4.021350  0.632029  -0.118195
C  3.542404  -0.255462  -1.084685
C  2.326629  -0.883327  -0.852694
C  1.552113  -0.682716  0.292167
C  2.080588  0.217267  1.218596
C  3.292020  0.877437  1.045620
H  4.968892  1.136546  -0.274892
H  4.089882  -0.462050  -1.996947
H  3.642507  1.562729  1.808643
F  1.844991  -1.741360  -1.786051
F  1.367836  0.462426  2.345385
H  -0.911453  3.236694  0.330483
H  -0.606007  3.625909  -1.366226
H  -2.222744  3.141057  -0.852435
H  -1.068305  1.228826  -2.003221
H  0.310082  1.394091  -0.936079
H  -3.219903  1.511913  0.411914
H  -4.543843  -0.287984  1.293777
H  -2.965640  -0.267818  2.090176
H  -2.445618  -1.870747  0.345902
H  -0.030565  -1.366194  1.554409
H  0.369325  -2.457403  0.233852
H  -1.030976  0.715988  1.009505
C  -3.621934  0.258915  -1.290359
H  -3.366073  -0.728746  -1.683939
H  -4.711068  0.292862  -1.181562
H  -3.341332  1.009933  -2.034613
H  -0.743758  -1.040024  -1.269637

