%nprocshared=2
%mem=6000MB
%chk=AT3_2ginp008.chk
# b3lyp/6-31g(d,p) Opt=(maxcycles=100,MaxStep=1) scrf=(solvent=chloroform)

AT3_2ginp008

0 1
C  -2.4915544581  -0.0400597812  -0.8192988703
C  -2.3816437126  0.1766459659  0.6957941974
C  -3.0622512994  -0.9240508086  1.5322107419
C  -2.6052853471  -0.9592840461  3.0158164182
C  -2.7876418937  0.3897493439  3.7130567538
O  -2.6260420966  0.1866685625  5.1199680393
N  -4.5260148047  -0.7532988428  1.4564947117
C  -5.2778322462  -2.009262117  1.5767630689
C  -9.5375796558  -1.3388997478  1.0831631609
C  -8.6747391238  -1.1733424638  -0.0022749521
C  -7.3201654749  -1.3972627122  0.1988789791
C  -6.7630586383  -1.7787300266  1.421045441
C  -7.6736563266  -1.9230670679  2.469069102
C  -9.0421641556  -1.7163850351  2.3310618714
H  -10.601675625  -1.1710461366  0.9547705069
H  -9.0316687102  -0.8782643504  -0.9821198769
H  -9.6909202874  -1.850830507  3.1888226612
F  -6.4703620316  -1.2303899263  -0.8489468498
F  -7.2014506356  -2.2935547028  3.6815200398
H  -2.0150637075  0.7791984202  -1.3666989937
H  -1.9996579798  -0.9724666055  -1.1174778641
H  -3.5313086363  -0.0956710575  -1.1611984311
H  -1.321748385  0.2312598753  0.964993429
H  -2.8202089233  1.1462828179  0.9644905677
H  -3.277274663  -1.6551984319  3.5365855627
H  -3.7880575882  0.7793403616  3.4825157029
H  -2.0459302996  1.1144002128  3.3417942429
H  -2.7263478118  1.0452272784  5.5509522966
H  -4.9555400229  -2.7606583785  0.8336046355
H  -5.0951073234  -2.4414993959  2.5624549307
H  -2.7679858678  -1.8966663905  1.0920107035
C  -1.1774078614  -1.4977618296  3.1791393453
H  -0.4391268077  -0.851079128  2.6913910686
H  -0.9152975385  -1.5550574543  4.2383485162
H  -1.0804582683  -2.4999500093  2.7476526249
H  -4.7615767922  -0.3453228854  0.5563145181

