%nprocshared=2
%mem=6000MB
%chk=AT3_1ginp015.chk
# b3lyp/6-31g(d,p) Opt=(maxcycles=100,MaxStep=1) scrf=(solvent=chloroform)

AT3_1ginp015

0 1
C  -1.926743  -1.869548  2.435345
C  -1.491145  -1.766554  0.970607
C  -1.307425  -0.331254  0.437351
C  -2.580480  0.553162  0.550792
C  -3.734249  0.050451  -0.339022
O  -3.459582  0.177389  -1.728353
N  -0.833590  -0.417414  -0.974975
C  0.259287  0.495120  -1.357448
C  3.996561  -0.083566  0.788300
C  3.556976  -1.047345  -0.122462
C  2.357004  -0.824566  -0.782334
C  1.560531  0.307698  -0.595345
C  2.048707  1.229808  0.331280
C  3.243048  1.066014  1.024933
H  4.931360  -0.232059  1.318403
H  4.122632  -1.949848  -0.322690
H  3.561344  1.825921  1.729148
F  1.912948  -1.756573  -1.664087
F  1.317973  2.347327  0.567220
H  -2.946007  -1.504400  2.591877
H  -1.898795  -2.911576  2.768621
H  -1.261207  -1.293866  3.088443
H  -0.527820  -2.280717  0.854589
H  -2.202710  -2.306769  0.332746
H  -2.921368  0.470503  1.591147
H  -4.634539  0.642229  -0.130004
H  -3.978286  -0.993115  -0.078267
H  -2.519804  -0.097076  -1.810851
H  0.449768  0.339596  -2.423752
H  -0.075384  1.524362  -1.236105
H  -0.529313  0.140301  1.058443
C  -2.299528  2.040010  0.279291
H  -2.151007  2.220490  -0.788568
H  -3.150990  2.652591  0.594972
H  -1.412291  2.389188  0.817062
H  -0.517344  -1.366333  -1.159491

