%nprocshared=2
%mem=6000MB
%chk=AT3_2ginp006.chk
# b3lyp/6-31g(d,p) Opt=(maxcycles=100,MaxStep=1) scrf=(solvent=chloroform)

AT3_2ginp006

0 1
C  -3.633157  -2.166349  -1.301056
C  -2.290581  -1.899508  -0.610000
C  -1.893842  -0.408983  -0.504976
C  -2.886763  0.442394  0.325910
C  -2.560443  1.931926  0.185666
O  -3.639054  2.685174  0.746055
N  -0.521557  -0.205859  0.001855
C  0.543131  -0.536762  -0.953453
C  4.444303  0.380494  0.713421
C  3.729101  -0.724268  1.180029
C  2.485796  -0.983461  0.619958
C  1.904606  -0.207463  -0.384310
C  2.662717  0.886287  -0.804705
C  3.915237  1.196981  -0.286308
H  5.419058  0.606357  1.132769
H  4.114648  -1.373124  1.957820
H  4.450543  2.060081  -0.664810
F  1.776749  -2.049304  1.072536
F  2.156608  1.680124  -1.777128
H  -3.797291  -3.241226  -1.428665
H  -4.477995  -1.772360  -0.727923
H  -3.663881  -1.706955  -2.295835
H  -2.295921  -2.344618  0.393513
H  -1.503050  -2.421861  -1.166383
H  -3.881688  0.306508  -0.118327
H  -2.427996  2.180658  -0.879766
H  -1.612826  2.151877  0.693816
H  -3.355451  3.606817  0.797542
H  0.546650  -1.594135  -1.264885
H  0.387239  0.060547  -1.855241
H  -1.901868  0.004110  -1.524656
C  -2.967070  0.037873  1.805483
H  -3.321914  -0.989340  1.933250
H  -1.989254  0.123916  2.293467
H  -3.657526  0.700811  2.332438
H  -0.386565  -0.770796  0.837832

