%mem=6000MB
%chk=AT3_1ginp007.chk
# mPw1PW91/6-311g(d) nmr=giao scrf=(solvent=chloroform)

AT3_1ginp007

0 1
C  -1.361895  -0.261854  0.227839
C  -1.767314  0.703603  1.334448
C  -0.629907  1.083114  2.316055
C  -1.146095  2.063318  3.424429
C  -0.018916  2.516015  4.374808
O  0.866172  3.421651  3.726931
N  0.494847  1.723220  1.602217
C  1.632294  0.812758  1.414328
C  4.902810  2.839408  -0.549659
C  4.971778  2.554563  0.813251
C  3.913898  1.896552  1.440222
C  2.773978  1.510785  0.733769
C  2.725863  1.804779  -0.630426
C  3.773926  2.461232  -1.274325
H  5.723249  3.354481  -1.042692
H  5.841950  2.841533  1.396387
H  3.700006  2.675528  -2.336284
F  4.015381  1.625614  2.749216
F  1.648525  1.454291  -1.348578
H  -0.664201  0.199552  -0.476586
H  -0.901229  -1.163771  0.642559
H  -2.245376  -0.567456  -0.342432
H  -2.188673  1.609033  0.879850
H  -2.580877  0.221959  1.887050
H  -1.550332  2.957650  2.929845
H  0.560892  1.661489  4.740060
H  -0.426189  3.041728  5.244375
H  1.037241  3.026802  2.844106
H  1.965521  0.433922  2.388327
H  1.351601  -0.063944  0.820233
H  -0.290780  0.166650  2.818183
C  -2.264835  1.436726  4.267213
H  -1.948925  0.480120  4.696558
H  -2.550267  2.098943  5.092121
H  -3.169668  1.268958  3.676474
H  0.182015  2.048660  0.684408

