%mem=6000MB
%chk=AT3_1ginp017.chk
# mPw1PW91/6-311g(d) nmr=giao scrf=(solvent=chloroform)

AT3_1ginp017

0 1
C  -1.880293  0.621302  0.473646
C  -1.099819  -0.061108  1.590229
C  -0.188004  0.867428  2.429344
C  -0.955154  1.997259  3.182995
C  -0.003553  2.786221  4.106273
O  -0.685718  3.876419  4.722938
N  0.868423  1.494115  1.616954
C  1.898359  0.557848  1.166030
C  5.132219  2.682729  -0.755051
C  3.939094  2.451974  -1.437563
C  2.903536  1.762312  -0.808103
C  3.028636  1.288123  0.499340
C  4.229931  1.532100  1.166045
C  5.276572  2.220293  0.552219
H  5.943964  3.221059  -1.237463
H  3.805508  2.806193  -2.455297
H  6.197518  2.391006  1.101930
F  1.763289  1.557208  -1.484386
F  4.403112  1.093530  2.421254
H  -2.535453  1.407285  0.858986
H  -1.214440  1.059017  -0.275599
H  -2.511542  -0.112677  -0.038308
H  -1.807786  -0.573259  2.252084
H  -0.501369  -0.867265  1.149346
H  -1.378587  2.704567  2.457143
H  0.849233  3.203514  3.562325
H  0.387469  2.143613  4.902263
H  -0.933204  4.491955  4.011980
H  2.287302  -0.017535  2.014855
H  1.490534  -0.170468  0.455566
H  0.289725  0.243570  3.197700
C  -2.129676  1.452870  4.011700
H  -1.791946  0.684858  4.715641
H  -2.615092  2.247717  4.587520
H  -2.903490  1.017241  3.372964
H  0.463400  1.957856  0.803914

