%mem=6000MB
%chk=AT3_1ginp011.chk
# mPw1PW91/6-311g(d) nmr=giao scrf=(solvent=chloroform)

AT3_1ginp011

0 1
C  0.070726  -1.553214  2.661797
C  -0.864151  -0.383566  2.368462
C  -0.337561  0.982116  2.872110
C  -1.343950  2.162372  2.653095
C  -0.875176  3.450431  3.362653
O  0.322284  3.965501  2.799408
N  1.016761  1.317448  2.375424
C  1.159584  1.306301  0.910174
C  5.130306  2.551343  -0.262316
C  4.942001  1.344562  0.408692
C  3.656629  0.952836  0.780917
C  2.539162  1.743133  0.501472
C  2.749582  2.943790  -0.177978
C  4.028210  3.352204  -0.557595
H  6.128816  2.866208  -0.554258
H  5.786909  0.705496  0.646948
H  4.152384  4.295100  -1.082134
F  3.501509  -0.214259  1.424381
F  1.709562  3.727595  -0.495283
H  1.007435  -1.480504  2.102586
H  0.307955  -1.605637  3.729139
H  -0.409520  -2.494982  2.376611
H  -1.081000  -0.344060  1.294824
H  -1.811441  -0.614613  2.868086
H  -1.416935  2.370913  1.578769
H  -0.703931  3.271222  4.429754
H  -1.632276  4.236645  3.275558
H  0.918472  3.193659  2.687984
H  0.990185  0.305522  0.497482
H  0.418669  1.965862  0.447611
H  -0.225703  0.880686  3.961045
C  -2.756201  1.830325  3.152445
H  -2.740829  1.500191  4.196482
H  -3.411131  2.706093  3.084900
H  -3.219673  1.046495  2.545820
H  1.679109  0.632756  2.750375

