%mem=6000MB
%chk=AT3_1ginp009.chk
# mPw1PW91/6-311g(d) nmr=giao scrf=(solvent=chloroform)

AT3_1ginp009

0 1
C  0.067343  -1.140550  3.251980
C  -0.765844  0.053001  2.791806
C  0.039328  1.372114  2.665884
C  -0.884207  2.612215  2.437406
C  -1.882730  2.848078  3.581473
O  -1.205246  2.890300  4.830071
N  1.031941  1.229432  1.576803
C  2.105710  2.226021  1.654802
C  4.973742  1.613037  -1.519346
C  4.008337  2.612608  -1.630057
C  3.087405  2.807541  -0.600444
C  3.107660  2.022532  0.553319
C  4.080136  1.024607  0.642471
C  5.008481  0.815561  -0.376877
H  5.692410  1.455579  -2.319322
H  3.962677  3.243836  -2.512509
H  5.749975  0.029293  -0.272043
F  2.176922  3.782768  -0.735240
F  4.131381  0.239006  1.728449
H  -0.586889  -1.996341  3.449074
H  0.790775  -1.453378  2.494076
H  0.607181  -0.909715  4.175687
H  -1.245124  -0.199117  1.838288
H  -1.569290  0.176966  3.524860
H  -0.239749  3.500330  2.422959
H  -2.651116  2.070208  3.623235
H  -2.390514  3.809127  3.441762
H  -1.872368  3.091240  5.509127
H  1.708232  3.243498  1.584063
H  2.623683  2.159794  2.620145
H  0.579814  1.508359  3.612104
C  -1.640238  2.573066  1.104218
H  -0.955157  2.482367  0.255671
H  -2.347751  1.738909  1.065209
H  -2.211785  3.496957  0.961545
H  1.472333  0.312756  1.641689

