%mem=6000MB
%chk=AT3_2ginp012.chk
# mPw1PW91/6-311g(d) nmr=giao scrf=(solvent=chloroform)

AT3_2ginp012

0 1
C  -2.465760  -1.777855  -0.731806
C  -2.153853  -0.787545  0.383452
C  -2.960746  -1.039596  1.677767
C  -2.434064  -0.167242  2.853845
C  -3.137765  -0.539336  4.168818
O  -2.449841  0.050284  5.269427
N  -4.396776  -0.795686  1.474160
C  -5.186637  -2.027244  1.488117
C  -9.393262  -1.123786  1.123824
C  -8.828880  -1.339703  2.380258
C  -7.470263  -1.635437  2.490195
C  -6.651352  -1.726627  1.363755
C  -7.234752  -1.501839  0.115738
C  -8.591024  -1.205114  -0.013199
H  -10.450963  -0.890687  1.032052
H  -9.436187  -1.277996  3.278417
H  -9.010477  -1.036352  -1.000504
F  -6.957266  -1.843115  3.711894
F  -6.482853  -1.568626  -0.992915
H  -1.796983  -1.607240  -1.581670
H  -2.324914  -2.808953  -0.392864
H  -3.492489  -1.666724  -1.092643
H  -1.082855  -0.856396  0.611018
H  -2.330945  0.225728  0.004166
H  -1.364082  -0.383488  2.981657
H  -3.132236  -1.623930  4.318989
H  -4.174867  -0.187605  4.183928
H  -2.976276  -0.146298  6.063149
H  -4.885178  -2.697351  0.674064
H  -5.012651  -2.577995  2.421062
H  -2.788336  -2.086916  1.963889
C  -2.545113  1.344770  2.605961
H  -3.584997  1.656239  2.463818
H  -2.142999  1.910010  3.453657
H  -1.973477  1.647911  1.724007
H  -4.552698  -0.310410  0.590311

