%mem=6000MB
%chk=AT3_1ginp003.chk
# mPw1PW91/6-311g(d) nmr=giao scrf=(solvent=chloroform)

AT3_1ginp003

0 1
C  -1.956318  0.423891  0.084255
C  -1.956156  1.161171  1.419490
C  -0.657534  0.945785  2.232713
C  -0.829527  1.449300  3.699667
C  -1.024203  2.971959  3.819829
O  0.122921  3.699508  3.400206
N  0.481014  1.615441  1.572466
C  1.599649  0.691205  1.341265
C  4.968441  2.794882  -0.353860
C  4.969382  2.441108  0.994699
C  3.880117  1.757738  1.534788
C  2.776842  1.412405  0.753441
C  2.795122  1.777710  -0.593994
C  3.875254  2.460647  -1.151365
H  5.813439  3.330272  -0.779124
H  5.810314  2.694315  1.633641
H  3.853752  2.730291  -2.203004
F  3.914504  1.422975  2.832609
F  1.751510  1.472308  -1.379573
H  -1.798871  -0.649433  0.230607
H  -2.920525  0.557903  -0.416674
H  -1.178469  0.797303  -0.588032
H  -2.126298  2.227942  1.231688
H  -2.812734  0.803047  2.003767
H  -1.736155  0.977061  4.102254
H  -1.224807  3.246297  4.861017
H  -1.879258  3.311803  3.228500
H  0.521799  3.179366  2.668327
H  1.898819  0.205189  2.276960
H  1.295862  -0.112116  0.657634
H  -0.494031  -0.140344  2.275805
C  0.334936  0.995178  4.590879
H  1.283332  1.459752  4.303895
H  0.140834  1.258387  5.636416
H  0.459115  -0.091741  4.542062
H  0.193982  1.971822  0.657703

