%mem=6000MB
%chk=AT3_1ginp002.chk
# mPw1PW91/6-311g(d) nmr=giao scrf=(solvent=chloroform)

AT3_1ginp002

0 1
C  -2.678473  -0.112496  1.736205
C  -1.396704  0.575593  1.282826
C  -0.359264  0.801074  2.411349
C  -0.958883  1.562261  3.640333
C  -1.457616  2.980144  3.308599
O  -0.406364  3.828719  2.867201
N  0.833729  1.517127  1.901760
C  1.584776  0.762714  0.889341
C  5.266665  2.803577  -0.086034
C  4.160813  2.912866  -0.927948
C  2.976455  2.248343  -0.609841
C  2.866821  1.465068  0.539969
C  3.985059  1.371644  1.370928
C  5.177026  2.028832  1.069106
H  6.191125  3.321839  -0.327528
H  4.209408  3.513796  -1.831296
H  6.025588  1.934466  1.740109
F  1.932813  2.367829  -1.443062
F  3.920468  0.638326  2.492114
H  -3.287789  0.541365  2.366430
H  -3.285817  -0.381082  0.865487
H  -2.457962  -1.030124  2.290380
H  -0.959896  -0.063443  0.506868
H  -1.650539  1.524420  0.795412
H  -1.822762  0.990389  4.000833
H  -1.904370  3.441543  4.195741
H  -2.229939  2.960908  2.534107
H  0.097393  3.312998  2.200461
H  1.821178  -0.245501  1.252382
H  0.994020  0.640666  -0.024285
H  -0.039242  -0.186034  2.772938
C  0.023038  1.607958  4.822536
H  0.883459  2.256046  4.630802
H  -0.480033  1.991915  5.717051
H  0.394339  0.605060  5.057927
H  1.475043  1.660380  2.686870

