%mem=6000MB
%chk=AT3_1ginp014.chk
# mPw1PW91/6-311g(d) nmr=giao scrf=(solvent=chloroform)

AT3_1ginp014

0 1
C  -1.886916  0.501271  0.429454
C  -1.101412  -0.116164  1.579568
C  -0.219225  0.868884  2.385709
C  -1.025104  2.004507  3.090495
C  -0.097981  2.884220  3.952815
O  -0.837692  3.948966  4.546400
N  0.831463  1.487126  1.559652
C  1.856361  0.551185  1.100924
C  5.104460  2.689887  -0.779633
C  3.936595  2.418403  -1.490321
C  2.896357  1.723869  -0.874034
C  2.992496  1.284225  0.447701
C  4.168050  1.569976  1.143210
C  5.218996  2.263386  0.542721
H  5.919300  3.232346  -1.252059
H  3.825863  2.744756  -2.520066
H  6.119712  2.466607  1.114327
F  1.781285  1.478836  -1.578177
F  4.311406  1.168336  2.414586
H  -1.224530  0.935070  -0.325154
H  -2.486841  -0.270009  -0.065002
H  -2.572826  1.277732  0.779037
H  -1.803137  -0.617723  2.255827
H  -0.480451  -0.925939  1.178222
H  -1.487804  2.654641  2.335833
H  0.696115  3.338001  3.352246
H  0.362409  2.297406  4.755046
H  -0.196653  4.494423  5.033498
H  2.241764  -0.037033  1.942684
H  1.446118  -0.166500  0.381087
H  0.269260  0.288397  3.180847
C  -2.164735  1.451242  3.961275
H  -1.784326  0.738396  4.700554
H  -2.682551  2.251417  4.500188
H  -2.923327  0.946919  3.355685
H  0.416933  1.954065  0.752846

