%mem=6000MB
%chk=AT3_1ginp013.chk
# mPw1PW91/6-311g(d) nmr=giao scrf=(solvent=chloroform)

AT3_1ginp013

0 1
C  -0.402448  -1.326923  1.914355
C  -1.005109  0.053437  2.163687
C  0.049644  1.123103  2.536937
C  -0.587082  2.479680  2.968156
C  -1.442132  2.319968  4.236734
O  -1.760861  3.602976  4.765766
N  0.987057  1.239583  1.408200
C  2.188566  2.015155  1.711090
C  5.053609  1.682957  -1.505869
C  5.231085  0.953461  -0.331211
C  4.304145  1.067221  0.705166
C  3.191768  1.903045  0.599048
C  3.031327  2.622906  -0.586714
C  3.947707  2.521576  -1.632898
H  5.771627  1.596751  -2.317210
H  6.085272  0.293520  -0.212447
H  3.789296  3.096639  -2.540215
F  4.509026  0.358722  1.825115
F  1.973776  3.434601  -0.735730
H  -1.199192  -2.055017  1.730496
H  0.256259  -1.329543  1.040641
H  0.171331  -1.666140  2.782645
H  -1.564465  0.356657  1.270584
H  -1.733938  -0.052477  2.973975
H  0.220977  3.175326  3.229555
H  -0.893472  1.767598  5.006486
H  -2.382422  1.800493  4.028863
H  -2.299357  3.458674  5.562806
H  1.950592  3.075509  1.854952
H  2.641871  1.666441  2.646928
H  0.607949  0.729676  3.397717
C  -1.402969  3.162435  1.861207
H  -2.274008  2.565098  1.574625
H  -1.770070  4.139013  2.195157
H  -0.798312  3.339722  0.966936
H  0.521196  1.646167  0.597568

