%mem=6000MB
%chk=AT3_2ginp001.chk
# mPw1PW91/6-311g(d) nmr=giao scrf=(solvent=chloroform)

AT3_2ginp001

0 1
C  -0.819343  -1.730319  0.373965
C  -2.296789  -1.360910  0.402611
C  -2.888705  -1.261681  1.828068
C  -2.140568  -0.243502  2.746797
C  -2.690822  -0.268220  4.187539
O  -4.009974  0.254271  4.268804
N  -4.325134  -0.920355  1.774834
C  -5.174638  -2.051625  1.388733
C  -9.341306  -0.966647  1.730904
C  -8.732944  -1.733286  2.723809
C  -7.388485  -2.084493  2.604620
C  -6.626431  -1.687247  1.505231
C  -7.254083  -0.917937  0.523599
C  -8.597112  -0.557715  0.625559
H  -10.387942  -0.687237  1.820300
H  -9.294461  -2.059356  3.594377
H  -9.051482  0.043026  -0.156613
F  -6.833286  -2.828821  3.571764
F  -6.557061  -0.507903  -0.546603
H  -0.500736  -1.916910  -0.656865
H  -0.193587  -0.924535  0.767829
H  -0.629360  -2.637571  0.955892
H  -2.443235  -0.423135  -0.146279
H  -2.832577  -2.132274  -0.162949
H  -1.094761  -0.566798  2.822589
H  -2.055792  0.332799  4.846828
H  -2.700725  -1.290076  4.581567
H  -4.498908  -0.154257  3.520687
H  -4.974460  -2.368039  0.358662
H  -4.965971  -2.918143  2.027876
H  -2.779428  -2.244366  2.307570
C  -2.140895  1.190652  2.201520
H  -3.153870  1.583941  2.071423
H  -1.611212  1.859908  2.888545
H  -1.627814  1.249380  1.237132
H  -4.468279  -0.166363  1.097771

