%mem=6000MB
%chk=AT3_1ginp005.chk
# mPw1PW91/6-311g(d) nmr=giao scrf=(solvent=chloroform)

AT3_1ginp005

0 1
C  -3.121561  0.479589  1.590206
C  -1.851748  1.170993  1.113133
C  -0.618784  0.915157  2.013936
C  -0.825574  1.367442  3.493086
C  -1.064697  2.879876  3.652507
O  0.060991  3.651791  3.254603
N  0.543369  1.601576  1.405945
C  1.685292  0.692448  1.228834
C  5.120226  2.856352  -0.244074
C  4.079594  2.518508  -1.107604
C  2.977556  1.816044  -0.621856
C  2.885446  1.434477  0.717982
C  3.937118  1.783668  1.566063
C  5.047230  2.486472  1.098139
H  5.981642  3.406909  -0.613323
H  4.115871  2.800360  -2.155631
H  5.846306  2.742024  1.787838
F  1.985748  1.507139  -1.470594
F  3.900600  1.433431  2.859746
H  -3.499064  0.924390  2.515257
H  -3.908011  0.580062  0.835025
H  -2.949688  -0.587937  1.759251
H  -1.632261  0.799096  0.103081
H  -2.046154  2.244966  1.008126
H  -1.716147  0.856837  3.879442
H  -1.275504  3.121340  4.699819
H  -1.928608  3.209606  3.068447
H  0.489585  3.154571  2.523550
H  1.938476  0.195279  2.171747
H  1.429118  -0.104550  0.518729
H  -0.458844  -0.172283  2.014139
C  0.337359  0.923044  4.392242
H  1.273111  1.433891  4.145696
H  0.111461  1.139865  5.442150
H  0.502492  -0.156127  4.307170
H  0.294772  1.940478  0.472329

