%mem=6000MB
%chk=AT3_2ginp010.chk
# mPw1PW91/6-311g(d) nmr=giao scrf=(solvent=chloroform)

AT3_2ginp010

0 1
C  -2.726840  -2.862949  0.485290
C  -3.606630  -1.635589  0.683332
C  -3.625748  -1.113306  2.139553
C  -2.211613  -0.708906  2.667555
C  -2.261000  -0.272434  4.145646
O  -2.908841  0.981738  4.315323
N  -4.551649  0.032504  2.255512
C  -5.857954  -0.305383  2.839786
C  -8.480682  -2.571709  0.264043
C  -8.210963  -1.232468  -0.012071
C  -7.362670  -0.509593  0.825630
C  -6.767426  -1.094146  1.945195
C  -7.051643  -2.435948  2.203703
C  -7.897431  -3.174933  1.377128
H  -9.141195  -3.141950  -0.384280
H  -8.654627  -0.744203  -0.874803
H  -8.094557  -4.217555  1.608905
F  -7.113132  0.775013  0.533358
F  -6.500639  -3.044555  3.263615
H  -2.993574  -3.655683  1.191204
H  -2.856312  -3.255822  -0.528503
H  -1.666840  -2.625208  0.610730
H  -3.287493  -0.848942  -0.010481
H  -4.621187  -1.912025  0.377271
H  -1.578547  -1.604909  2.642255
H  -1.246790  -0.176475  4.547261
H  -2.787229  -1.016574  4.752867
H  -3.658981  0.975833  3.682446
H  -5.717775  -0.807374  3.805264
H  -6.364242  0.636041  3.088841
H  -3.969945  -1.934402  2.783219
C  -1.522641  0.366837  1.817398
H  -2.124251  1.277525  1.736246
H  -0.557775  0.642439  2.257275
H  -1.320263  0.003535  0.805498
H  -4.697715  0.474171  1.345253

