%mem=6000MB
%chk=AT3_1ginp008.chk
# mPw1PW91/6-311g(d) nmr=giao scrf=(solvent=chloroform)

AT3_1ginp008

0 1
C  -0.020074  -0.064641  0.074623
C  -0.714733  0.360825  1.363338
C  0.195147  1.169186  2.322752
C  -0.473457  1.278089  3.731827
C  -1.770388  2.107857  3.746857
O  -1.539578  3.471385  3.416795
N  0.487361  2.498078  1.750852
C  1.897644  2.902048  1.866665
C  4.548413  0.910516  -0.905941
C  4.598238  0.606855  0.453479
C  3.739630  1.254294  1.341401
C  2.818823  2.207462  0.903690
C  2.787812  2.497837  -0.461580
C  3.638191  1.860971  -1.364450
H  5.215040  0.409726  -1.603483
H  5.300708  -0.130558  0.830849
H  3.582740  2.111490  -2.419775
F  3.808702  0.938800  2.642681
F  1.914243  3.400708  -0.930117
H  0.902241  -0.614100  0.287405
H  -0.677617  -0.721985  -0.503633
H  0.222958  0.793143  -0.557880
H  -1.612964  0.933456  1.103489
H  -1.057644  -0.547858  1.873629
H  -0.743045  0.258743  4.041195
H  -2.225328  2.082120  4.742830
H  -2.509123  1.707011  3.046978
H  -0.847557  3.464667  2.719863
H  1.952251  3.979786  1.666915
H  2.257050  2.791163  2.894788
H  1.115354  0.583511  2.441605
C  0.499334  1.807640  4.793107
H  0.750868  2.860889  4.637383
H  0.055837  1.722093  5.791343
H  1.427779  1.227103  4.794765
H  0.236657  2.533943  0.760813

