%mem=6000MB
%chk=AT3_1ginp012.chk
# mPw1PW91/6-311g(d) nmr=giao scrf=(solvent=chloroform)

AT3_1ginp012

0 1
C  -2.586173  0.140832  1.589959
C  -1.268642  0.745610  1.121175
C  -0.192732  0.864564  2.229300
C  -0.698294  1.630420  3.491947
C  -1.064509  3.093685  3.204561
O  -1.651592  3.679569  4.364356
N  1.028539  1.500869  1.692472
C  1.770386  0.642015  0.761867
C  5.452562  2.546238  -0.460351
C  4.347556  2.546979  -1.310352
C  3.162606  1.928250  -0.911430
C  3.051587  1.297974  0.328750
C  4.169084  1.311538  1.165934
C  5.361445  1.925214  0.784011
H  6.377735  3.028321  -0.765447
H  4.397401  3.026425  -2.283527
H  6.209408  1.916028  1.462285
F  2.120888  1.940056  -1.755590
F  4.104658  0.726419  2.371139
H  -3.233138  -0.057505  0.729022
H  -2.420825  -0.805826  2.113653
H  -3.129002  0.819980  2.253460
H  -0.896700  0.100708  0.316846
H  -1.464630  1.722606  0.663734
H  -1.598839  1.125801  3.864455
H  -1.796359  3.170336  2.396007
H  -0.181333  3.682454  2.936124
H  -1.844634  4.606521  4.141922
H  2.009769  -0.320582  1.231530
H  1.173183  0.416955  -0.127465
H  0.059083  -0.152668  2.560334
C  0.305018  1.545823  4.656171
H  1.192755  2.161510  4.481098
H  -0.154170  1.892863  5.588283
H  0.628471  0.512145  4.817558
H  1.659932  1.709504  2.466683

