%mem=6000MB
%chk=AT3_1ginp020.chk
# mPw1PW91/6-311g(d) nmr=giao scrf=(solvent=chloroform)

AT3_1ginp020

0 1
C  -0.199915  -1.195241  2.474200
C  -0.952846  0.130805  2.398676
C  -0.033098  1.365965  2.552069
C  -0.829216  2.708549  2.639592
C  -1.772632  2.768577  3.852891
O  -1.054180  2.509022  5.050128
N  0.941920  1.335056  1.445375
C  2.074587  2.238271  1.638858
C  5.016412  1.665561  -1.474040
C  5.230217  1.136709  -0.202019
C  4.278435  1.327292  0.800093
C  3.104596  2.043452  0.562812
C  2.908950  2.563105  -0.718613
C  3.849441  2.382366  -1.732240
H  5.753845  1.518161  -2.258677
H  6.132174  0.574185  0.020103
H  3.662231  2.800599  -2.716583
F  4.520259  0.813583  2.014767
F  1.792746  3.254508  -0.994314
H  -0.907859  -2.029642  2.437817
H  0.495391  -1.314632  1.637805
H  0.364833  -1.271962  3.408765
H  -1.498085  0.169241  1.448159
H  -1.703387  0.121871  3.195682
H  -0.094593  3.509654  2.793934
H  -2.593343  2.049783  3.769381
H  -2.212472  3.768694  3.936938
H  -1.687157  2.576107  5.785842
H  1.755815  3.286835  1.621733
H  2.534616  2.067014  2.619588
H  0.520829  1.233167  3.490936
C  -1.620769  3.048890  1.371765
H  -0.969508  3.126263  0.496397
H  -2.392657  2.301818  1.163157
H  -2.121952  4.017104  1.482616
H  0.485505  1.544773  0.559705

