%mem=6000MB
%chk=AT3_2ginp006.chk
# mPw1PW91/6-311g(d) nmr=giao scrf=(solvent=chloroform)

AT3_2ginp006

0 1
C  -0.971650  -1.692760  0.370083
C  -2.460185  -1.371872  0.333923
C  -3.109623  -1.262409  1.733261
C  -2.432689  -0.208389  2.658576
C  -3.061290  -0.230578  4.062742
O  -2.260221  0.532560  4.962270
N  -4.547399  -0.962329  1.617962
C  -5.356018  -2.120467  1.236278
C  -9.557567  -1.125945  1.372368
C  -8.788897  -0.780476  0.262193
C  -7.434489  -1.110194  0.227700
C  -6.819410  -1.787133  1.282532
C  -7.605274  -2.119748  2.386763
C  -8.961641  -1.798144  2.438492
H  -10.613574  -0.870978  1.407998
H  -9.232945  -0.253616  -0.577093
H  -9.542499  -2.074287  3.313526
F  -6.715599  -0.762295  -0.849918
F  -7.062980  -2.771267  3.425874
H  -0.607127  -1.890058  -0.643385
H  -0.388294  -0.858587  0.769936
H  -0.775323  -2.580904  0.978764
H  -2.615418  -0.451797  -0.241777
H  -2.949252  -2.172333  -0.233765
H  -1.377085  -0.482182  2.783447
H  -3.110501  -1.253922  4.449307
H  -4.070506  0.194475  4.060474
H  -2.719725  0.522563  5.819318
H  -5.106341  -2.466247  0.226569
H  -5.157547  -2.962618  1.910576
H  -2.990539  -2.233510  2.233777
C  -2.451828  1.218890  2.092023
H  -1.949010  1.270896  1.122056
H  -3.473527  1.592010  1.968255
H  -1.926588  1.910257  2.759793
H  -4.690537  -0.219407  0.932343

