%mem=6000MB
%chk=AT3_1ginp015.chk
# mPw1PW91/6-311g(d) nmr=giao scrf=(solvent=chloroform)

AT3_1ginp015

0 1
C  -1.070364  -0.673933  1.062245
C  -0.586122  0.761821  0.913719
C  0.210881  1.286207  2.132965
C  -0.596970  1.245468  3.467690
C  -1.847835  2.141967  3.466924
O  -1.522694  3.521702  3.356037
N  0.664516  2.661018  1.826220
C  2.111353  2.855300  2.016449
C  4.572446  0.953252  -0.985917
C  3.714455  1.993351  -1.338255
C  2.923658  2.599539  -0.362983
C  2.963027  2.189844  0.971311
C  3.831397  1.148425  1.302387
C  4.630087  0.529959  0.340819
H  5.192750  0.475829  -1.740274
H  3.654534  2.338221  -2.366381
H  5.292633  -0.278546  0.635867
F  2.101349  3.593227  -0.729900
F  3.906920  0.717058  2.569554
H  -1.853923  -0.758388  1.820481
H  -1.493079  -1.025490  0.115353
H  -0.246728  -1.341743  1.333216
H  0.059586  0.801680  0.026150
H  -1.444190  1.409015  0.696947
H  -0.938543  0.214732  3.622651
H  -2.408884  2.009987  4.398252
H  -2.523273  1.882594  2.646742
H  -0.728141  3.567297  2.780723
H  2.313243  3.933182  1.977886
H  2.410451  2.546607  3.024202
H  1.069554  0.612759  2.252136
C  0.289786  1.581075  4.675855
H  0.630080  2.621026  4.666203
H  -0.262311  1.424179  5.609065
H  1.171530  0.932095  4.701519
H  0.452888  2.902259  0.854194

