%mem=6000MB
%chk=AT3_2ginp008.chk
# mPw1PW91/6-311g(d) nmr=giao scrf=(solvent=chloroform)

AT3_2ginp008

0 1
C  -2.568255  0.273097  -0.775405
C  -2.324100  0.214411  0.730297
C  -3.044515  -0.959882  1.442586
C  -2.582843  -1.129392  2.923068
C  -2.971274  0.058345  3.814785
O  -2.610940  -0.214269  5.167417
N  -4.504241  -0.764677  1.327519
C  -5.280277  -1.947916  1.715279
C  -9.491698  -1.290232  1.005270
C  -8.657157  -1.689990  -0.036999
C  -7.300412  -1.902490  0.204655
C  -6.747475  -1.728800  1.474823
C  -7.598805  -1.322469  2.503415
C  -8.958536  -1.105467  2.280081
H  -10.550217  -1.121137  0.825354
H  -9.051816  -1.835555  -1.038104
H  -9.591028  -0.791878  3.105316
F  -6.516926  -2.278356  -0.817011
F  -7.117955  -1.139809  3.741676
H  -1.921440  1.032365  -1.227490
H  -2.341515  -0.687633  -1.248124
H  -3.600836  0.544295  -1.012383
H  -1.241955  0.125120  0.870742
H  -2.621285  1.173299  1.171544
H  -3.065268  -2.024241  3.337100
H  -4.050812  0.235666  3.789007
H  -2.457011  0.974753  3.509609
H  -2.963746  0.517658  5.701905
H  -4.954228  -2.827945  1.146504
H  -5.133415  -2.186441  2.773732
H  -2.775019  -1.876705  0.900042
C  -1.077329  -1.419756  3.029083
H  -0.473411  -0.527402  2.837985
H  -0.821926  -1.776182  4.033072
H  -0.779052  -2.199656  2.320700
H  -4.737087  -0.561016  0.355618

