%mem=6000MB
%chk=AT3_1ginp018.chk
# mPw1PW91/6-311g(d) nmr=giao scrf=(solvent=chloroform)

AT3_1ginp018

0 1
C  -2.014879  0.423348  0.486933
C  -1.212513  -0.024286  1.701915
C  -0.396338  1.085213  2.410655
C  -1.274994  2.243731  2.977051
C  -0.439808  3.348660  3.656091
O  0.413361  2.822388  4.664366
N  0.638058  1.669528  1.540652
C  1.732237  0.750971  1.228151
C  4.951756  2.890593  -0.696318
C  4.968816  2.690042  0.683271
C  3.927550  1.994032  1.296707
C  2.859239  1.482160  0.558803
C  2.857271  1.700150  -0.819816
C  3.889773  2.393510  -1.450252
H  5.759485  3.433989  -1.179889
H  5.784863  3.072875  1.289039
H  3.855702  2.543398  -2.525232
F  3.970966  1.815614  2.625160
F  1.842799  1.238767  -1.566083
H  -1.370086  0.831640  -0.296420
H  -2.547896  -0.432883  0.060141
H  -2.762876  1.175635  0.751650
H  -1.896512  -0.490512  2.420342
H  -0.541140  -0.834186  1.392177
H  -1.820822  2.724629  2.155146
H  -1.096431  4.087930  4.127561
H  0.174066  3.893118  2.930145
H  1.170234  2.428465  4.190824
H  2.109270  0.274176  2.141441
H  1.393752  -0.059093  0.571779
H  0.103175  0.610556  3.266224
C  -2.315776  1.719690  3.977735
H  -1.843849  1.143138  4.780249
H  -2.867261  2.547794  4.436400
H  -3.056650  1.081981  3.486692
H  0.223615  2.000955  0.669612

