%mem=6000MB
%chk=AT3_1ginp016.chk
# mPw1PW91/6-311g(d) nmr=giao scrf=(solvent=chloroform)

AT3_1ginp016

0 1
C  -1.983821  0.603954  0.344983
C  -1.769920  1.639824  1.445743
C  -0.398350  1.516820  2.155501
C  -0.310213  2.388882  3.448892
C  -1.286282  1.935421  4.545470
O  -1.096583  0.561785  4.859843
N  0.677185  1.896128  1.214740
C  1.953015  1.246037  1.530106
C  5.054877  2.620902  -1.143696
C  4.962985  3.137129  0.148067
C  3.961164  2.685967  1.007532
C  3.039059  1.718075  0.606904
C  3.146475  1.216735  -0.691677
C  4.141331  1.655974  -1.564431
H  5.832022  2.970326  -1.818470
H  5.663759  3.890812  0.494727
H  4.193421  1.243431  -2.567529
F  3.904951  3.195841  2.246622
F  2.276702  0.290890  -1.122340
H  -1.841915  -0.410903  0.729764
H  -3.005871  0.677443  -0.041166
H  -1.304613  0.752744  -0.498812
H  -1.894274  2.641067  1.015841
H  -2.579137  1.506553  2.170635
H  0.695898  2.254978  3.867241
H  -2.329864  2.077773  4.251247
H  -1.130746  2.513508  5.463446
H  -0.207631  0.474054  5.245584
H  2.253277  1.443041  2.564854
H  1.858408  0.156190  1.439736
H  -0.274598  0.461134  2.431163
C  -0.497192  3.888157  3.188000
H  -1.508385  4.114290  2.835234
H  -0.335109  4.458900  4.109184
H  0.216750  4.259555  2.446415
H  0.424176  1.622373  0.266216

