%nprocshared=4
%mem=6000MB
%chk=IP1_1ginp017.chk
# m062x/def2tzvp int=ultrafine scrf=(solvent=chloroform)

IP1_1ginp017

0 1
C  2.114338  0.689370  0.515291
C  0.864269  1.578992  0.313681
C  -0.266651  0.828220  -0.438921
C  0.300396  0.308735  -1.765300
C  1.594843  -0.467662  -1.639296
H  2.990243  1.347360  0.557590
H  0.472395  1.799970  1.312258
H  -0.415470  -0.326996  -2.291195
H  0.506449  1.152485  -2.434796
O  2.424022  -0.185139  -0.620359
O  1.935224  -1.298723  -2.458434
C  2.122684  -0.168824  1.784044
C  3.443424  -0.911000  2.007386
C  1.264366  2.915398  -0.338816
O  -0.659361  -0.258565  0.406156
Si  -1.553560  -1.678394  0.230514
C  -3.063334  -1.479163  -0.888178
C  -0.465056  -3.070616  -0.425488
C  -2.115204  -2.073129  1.982435
H  0.368029  -3.273394  0.256041
H  -1.051689  -3.992457  -0.515467
H  -0.038931  -2.847681  -1.408096
H  -2.668928  -3.018361  2.008818
H  -1.260801  -2.167794  2.660636
H  -2.770991  -1.289381  2.375925
H  -3.622570  -2.422421  -0.897868
H  -3.741958  -0.699548  -0.527193
H  -2.802545  -1.249165  -1.926552
H  2.034083  3.402891  0.267224
H  1.681085  2.779813  -1.342451
H  0.420657  3.604510  -0.406887
H  1.285368  -0.869118  1.749103
H  1.932903  0.507620  2.627086
H  3.410875  -1.485266  2.938380
H  3.649910  -1.604647  1.188100
H  4.285928  -0.212930  2.075662
C  -1.499703  1.728196  -0.710070
C  -2.120852  2.314032  0.528211
C  -2.434573  3.600857  0.688458
H  -2.238327  1.102015  -1.225870
H  -1.233523  2.525950  -1.410315
H  -2.328828  1.610425  1.332651
H  -2.899593  3.964818  1.600024
H  -2.246687  4.337806  -0.089511

