%nprocshared=4
%mem=6000MB
%chk=IP1_1ginp016.chk
# m062x/def2tzvp int=ultrafine scrf=(solvent=chloroform)

IP1_1ginp016

0 1
C  -2.306414  0.027096  -0.403378
C  -0.826398  0.062513  -0.808749
C  0.057789  0.438869  0.415079
C  -0.163332  -0.677351  1.450933
C  -1.617868  -0.965644  1.777066
H  -2.638420  1.053661  -0.206053
H  -0.522389  -0.957861  -1.074056
H  0.247360  -1.618916  1.067059
H  0.347309  -0.465462  2.392976
O  -2.553820  -0.704240  0.842012
O  -1.962505  -1.474489  2.823188
C  -3.265052  -0.588932  -1.429403
C  -2.951890  -2.032128  -1.835276
C  -0.623108  0.939113  -2.052947
O  1.423770  0.521034  0.022901
Si  2.698504  -0.556909  -0.199603
C  3.370438  -1.162830  1.456293
C  2.214790  -2.031960  -1.276002
C  4.001594  0.480055  -1.072924
H  1.475471  -2.685309  -0.800470
H  1.808622  -1.707757  -2.239824
H  3.102183  -2.642942  -1.479645
H  4.912297  -0.103750  -1.247212
H  3.642181  0.838212  -2.043191
H  4.274685  1.354265  -0.472831
H  3.618744  -0.320241  2.110495
H  2.663103  -1.805178  1.989886
H  4.287711  -1.742451  1.299540
H  -1.075435  1.926661  -1.936300
H  0.443417  1.078729  -2.240652
H  -1.060169  0.463286  -2.935430
H  -3.284156  0.060552  -2.311156
H  -4.268897  -0.541902  -0.992873
H  -2.888647  -2.681167  -0.956731
H  -3.741931  -2.423399  -2.482966
H  -2.008990  -2.111666  -2.385581
C  -0.274871  1.797787  1.091761
C  -0.039522  3.039278  0.276167
C  -0.887391  4.066328  0.194954
H  0.377394  1.842272  1.975192
H  -1.303307  1.790027  1.470289
H  0.918343  3.089851  -0.237562
H  -0.647007  4.958978  -0.375204
H  -1.850691  4.056632  0.700486

