%nprocshared=4
%mem=6000MB
%chk=IP1_1ginp013.chk
# m062x/def2tzvp int=ultrafine scrf=(solvent=chloroform)

IP1_1ginp013

0 1
C  2.438045  -0.423690  0.252018
C  0.982075  -0.798640  0.640176
C  -0.025845  0.363446  0.410580
C  0.191098  0.866569  -1.024728
C  1.597303  1.377775  -1.251111
H  2.997404  -0.186554  1.163494
H  0.651881  -1.587406  -0.048179
H  0.015180  0.047868  -1.733352
H  -0.490730  1.679323  -1.277232
O  2.588587  0.799352  -0.542242
O  1.868871  2.284291  -2.009676
C  3.188429  -1.508913  -0.533613
C  3.402197  -2.832097  0.207552
C  0.924140  -1.367033  2.066675
O  -1.349196  -0.128029  0.603007
Si  -2.530678  -0.876263  -0.332816
C  -3.822723  -1.399865  0.929503
C  -3.289405  0.330995  -1.568516
C  -1.879276  -2.397799  -1.243691
H  -3.622051  1.247367  -1.069506
H  -2.592822  0.615424  -2.363311
H  -4.165445  -0.123378  -2.046105
H  -2.707551  -2.893881  -1.763655
H  -1.124043  -2.156462  -1.999014
H  -1.443482  -3.125604  -0.550983
H  -4.672452  -1.886333  0.437631
H  -3.403704  -2.107334  1.652564
H  -4.206685  -0.538838  1.486272
H  1.501972  -2.290107  2.149926
H  1.327754  -0.661235  2.799193
H  -0.110090  -1.588942  2.340341
H  4.160019  -1.086852  -0.812240
H  2.646170  -1.690130  -1.470677
H  4.027855  -3.498880  -0.393063
H  3.908318  -2.678289  1.166744
H  2.461063  -3.354920  0.401250
C  0.154077  1.514541  1.436945
C  -0.761151  2.686743  1.210479
C  -0.356786  3.941750  1.007967
H  1.196685  1.850634  1.436481
H  -0.050592  1.091293  2.426880
H  -1.826769  2.464296  1.229951
H  -1.065340  4.752408  0.864364
H  0.697782  4.206604  0.981518

