%nprocshared=4
%mem=6000MB
%chk=IP1_1ginp006.chk
# m062x/def2tzvp int=ultrafine scrf=(solvent=chloroform)

IP1_1ginp006

0 1
C  -2.356733  0.415705  0.118469
C  -1.182054  0.203736  -0.853124
C  0.126236  0.840953  -0.268684
C  0.029576  0.887458  1.284568
C  -0.834184  -0.187755  1.896119
H  -2.449982  1.481178  0.370862
H  -0.997991  -0.875664  -0.859849
H  1.018973  0.859848  1.737118
H  -0.422659  1.844449  1.573735
O  -2.064883  -0.314514  1.351941
O  -0.518626  -0.891573  2.834397
C  -3.728324  -0.087456  -0.337063
C  -3.801644  -1.582960  -0.662666
C  -1.492197  0.625125  -2.294953
O  1.249373  0.082506  -0.712290
Si  2.010860  -1.362388  -0.293222
C  2.819721  -1.256914  1.407146
C  0.837014  -2.841171  -0.324583
C  3.319948  -1.560870  -1.629412
H  1.410354  -3.756880  -0.135897
H  0.062315  -2.781829  0.446562
H  0.345950  -2.955775  -1.296782
H  3.909102  -2.469567  -1.462157
H  2.864988  -1.634871  -2.622627
H  4.010998  -0.711572  -1.639074
H  3.464121  -0.375552  1.495161
H  2.077220  -1.223864  2.210490
H  3.445899  -2.142119  1.570595
H  -1.820331  1.666681  -2.365477
H  -0.604307  0.505647  -2.921694
H  -2.279703  -0.000357  -2.721911
H  -4.037753  0.510442  -1.201141
H  -4.438048  0.144651  0.465167
H  -3.161218  -1.854491  -1.507654
H  -3.496442  -2.184268  0.197681
H  -4.826557  -1.862616  -0.923749
C  0.367633  2.283028  -0.788743
C  1.551915  2.967962  -0.164887
C  1.505695  4.134885  0.479826
H  -0.535254  2.883958  -0.627244
H  0.527564  2.215570  -1.870355
H  2.505853  2.454909  -0.275658
H  2.398284  4.591615  0.897417
H  0.574057  4.682188  0.607136

