%nprocshared=5
%mem=6000MB
%chk=IP1_4ginp005.chk
# m062x/def2tzvp int=ultrafine scrf=(solvent=chloroform)

IP1_4ginp005

0 1
C  2.147592  -0.780463  -0.774270
C  1.077047  0.236720  -1.205897
C  0.007613  0.495631  -0.105344
C  0.641743  0.276236  1.301666
C  2.153020  0.353754  1.380144
H  2.934313  -0.777540  -1.536723
H  1.629295  1.179005  -1.307854
H  0.238779  0.963913  2.047221
H  0.375305  -0.734701  1.624890
O  2.850325  -0.258052  0.399824
O  2.752123  0.883852  2.293654
C  1.713689  -2.233986  -0.559382
C  2.875767  -3.154548  -0.171861
C  0.482960  -0.099590  -2.577967
O  -1.048424  -0.446469  -0.282155
Si  -2.638611  -0.582653  0.256935
C  -3.064773  -2.383122  -0.082875
C  -2.810167  -0.211187  2.100974
C  -3.797027  0.537031  -0.726672
H  -3.847289  -0.384478  2.411743
H  -2.171645  -0.860814  2.708678
H  -2.567015  0.827317  2.348631
H  -4.839088  0.313052  -0.469483
H  -3.628649  1.599197  -0.524314
H  -3.680431  0.376937  -1.803855
H  -4.102692  -2.598035  0.194751
H  -2.946925  -2.622160  -1.144951
H  -2.418076  -3.058864  0.486343
H  1.282754  -0.228616  -3.314816
H  -0.114463  -1.012083  -2.547432
H  -0.162474  0.708569  -2.933143
H  1.270818  -2.580436  -1.500025
H  0.916026  -2.293849  0.186111
H  2.530926  -4.187144  -0.062673
H  3.661230  -3.143222  -0.935893
H  3.328195  -2.846331  0.774639
C  -0.547470  1.943703  -0.224122
C  0.461648  3.039979  -0.010797
C  0.739700  3.998681  -0.896319
H  -1.339591  2.045412  0.530239
H  -1.022533  2.059177  -1.203717
H  0.982019  3.044772  0.947030
H  1.466136  4.776996  -0.682661
H  0.245395  4.043382  -1.864080

