%nprocshared=4
%mem=6000MB
%chk=IP1_3ginp002.chk
# m062x/def2tzvp int=ultrafine scrf=(solvent=chloroform)

IP1_3ginp002

0 1
C  2.429946  -0.110986  0.063173
C  1.116690  0.244628  0.774643
C  -0.065283  0.043257  -0.213875
C  -0.076339  -1.433985  -0.638452
C  1.274510  -2.021260  -1.017313
H  2.580006  0.583482  -0.770555
H  1.161965  1.317432  0.993289
H  -0.439429  -2.044513  0.195381
H  -0.751189  -1.615061  -1.479418
O  2.396527  -1.449862  -0.532148
O  1.372424  -3.033965  -1.678812
C  3.694109  -0.087052  0.922608
C  4.024111  1.302445  1.477605
C  0.922053  -0.511842  2.098503
O  -1.258171  0.405111  0.478175
Si  -2.891128  0.012215  0.354839
C  -3.531279  0.107767  -1.418965
C  -3.230467  -1.708416  1.053909
C  -3.740015  1.309355  1.419590
H  -4.311772  -1.874113  1.127965
H  -2.820244  -2.507099  0.427681
H  -2.810033  -1.817920  2.059305
H  -4.822259  1.140680  1.448722
H  -3.369511  1.280158  2.449565
H  -3.568102  2.318059  1.029907
H  -4.610197  -0.087588  -1.426781
H  -3.372712  1.099466  -1.855234
H  -3.063981  -0.631476  -2.078117
H  -0.080086  -0.329605  2.489168
H  1.055062  -1.592324  1.983228
H  1.641337  -0.173778  2.848879
H  4.517885  -0.435401  0.289964
H  3.599641  -0.813967  1.735874
H  4.987067  1.286230  1.995948
H  4.089874  2.046060  0.675812
H  3.271301  1.649808  2.192061
C  0.054260  0.947356  -1.474050
C  0.184583  2.415296  -1.175764
C  1.112839  3.221223  -1.694657
H  -0.857553  0.774316  -2.059490
H  0.885814  0.618915  -2.107938
H  -0.555316  2.824814  -0.489703
H  1.146064  4.280088  -1.455234
H  1.867609  2.855327  -2.387469

