%nprocshared=4
%mem=6000MB
%chk=IP1_1ginp018.chk
# m062x/def2tzvp int=ultrafine scrf=(solvent=chloroform)

IP1_1ginp018

0 1
C  -2.313951  -0.552500  -0.369122
C  -0.840754  -0.935057  -0.590617
C  0.098001  0.290150  -0.398412
C  -0.130677  0.811571  1.027106
C  -1.581675  1.071067  1.381474
H  -2.674737  0.000072  -1.246358
H  -0.558186  -1.648609  0.195239
H  0.223852  0.066715  1.749870
H  0.419408  1.735462  1.213379
O  -2.536973  0.350707  0.759517
O  -1.914374  1.859442  2.241591
C  -3.233771  -1.751797  -0.126734
C  -4.713797  -1.378433  0.000239
C  -0.659816  -1.630995  -1.948702
O  1.449741  -0.114221  -0.596795
Si  2.676742  -0.786648  0.338576
C  3.983486  -1.259402  -0.929037
C  3.379930  0.479863  1.547070
C  2.109806  -2.325235  1.276609
H  4.271120  0.074319  2.040346
H  3.677468  1.396072  1.026091
H  2.667964  0.756534  2.330870
H  1.348444  -2.111085  2.033958
H  1.705825  -3.083224  0.597202
H  2.965557  -2.771575  1.796927
H  4.314253  -0.386756  -1.501714
H  4.863573  -1.691741  -0.440029
H  3.596883  -1.998832  -1.638080
H  -1.107199  -2.627869  -1.946068
H  -1.120758  -1.063353  -2.763649
H  0.403508  -1.740245  -2.170815
H  -2.893481  -2.268000  0.779758
H  -3.105098  -2.453502  -0.957456
H  -5.323420  -2.272575  0.161380
H  -4.878851  -0.697438  0.838610
H  -5.075970  -0.887150  -0.909858
C  -0.172099  1.407768  -1.442464
C  0.738727  2.598247  -1.313349
C  0.329877  3.850168  -1.100468
H  -1.214472  1.738057  -1.372220
H  -0.038577  0.963332  -2.435992
H  1.802283  2.391350  -1.415018
H  1.033125  4.674902  -1.029338
H  -0.723773  4.098294  -0.993158

