%nprocshared=4
%mem=6000MB
%chk=IP1_2ginp014.chk
# m062x/def2tzvp int=ultrafine scrf=(solvent=chloroform)

IP1_2ginp014

0 1
C  -2.307280  0.317971  -0.170330
C  -0.972818  -0.051215  -0.841834
C  0.180261  0.823128  -0.251662
C  -0.124499  1.157304  1.241845
C  -1.126960  0.273770  1.946268
H  -2.468149  1.403391  -0.229202
H  -0.764842  -1.079699  -0.522100
H  0.798370  1.165096  1.820792
H  -0.535861  2.173155  1.300635
O  -2.235519  -0.047242  1.241086
O  -1.025131  -0.101711  3.095476
C  -3.561139  -0.378594  -0.705480
C  -3.541690  -1.908893  -0.628687
C  -1.037977  -0.040781  -2.374620
O  1.433099  0.153285  -0.362321
Si  2.056303  -1.377371  -0.040854
C  1.305974  -2.174083  1.495617
C  1.807524  -2.511607  -1.528900
C  3.894877  -1.069957  0.212727
H  2.211747  -2.059358  -2.440884
H  2.331185  -3.461658  -1.369956
H  0.752920  -2.744976  -1.708722
H  4.333782  -0.571236  -0.657799
H  4.074690  -0.436861  1.087868
H  4.432034  -2.012879  0.364159
H  1.868306  -3.084608  1.735136
H  1.347488  -1.517278  2.369548
H  0.261012  -2.467934  1.353560
H  -0.045495  -0.213708  -2.798738
H  -1.694806  -0.832912  -2.741702
H  -1.413077  0.909115  -2.767372
H  -3.720425  -0.047159  -1.737210
H  -4.410519  0.002413  -0.127235
H  -3.384506  -2.245266  0.399498
H  -4.496121  -2.316321  -0.974925
H  -2.753967  -2.345370  -1.251006
C  0.361301  2.152383  -1.034030
C  1.387974  3.076544  -0.439337
C  1.157682  4.341974  -0.085297
H  -0.602701  2.670104  -1.105778
H  0.669487  1.889643  -2.051843
H  2.383212  2.654823  -0.310958
H  1.941714  4.971133  0.325993
H  0.177317  4.799232  -0.201413

