%nprocshared=4
%mem=6000MB
%chk=IP1_2ginp016.chk
# m062x/def2tzvp int=ultrafine scrf=(solvent=chloroform)

IP1_2ginp016

0 1
C  -2.306276  0.026995  -0.403372
C  -0.826266  0.062418  -0.808665
C  0.057813  0.438912  0.415204
C  -0.163274  -0.677266  1.451095
C  -1.617779  -0.965902  1.776996
H  -2.638301  1.053533  -0.205944
H  -0.522220  -0.957973  -1.073881
H  0.247707  -1.618809  1.067469
H  0.347168  -0.465175  2.393206
O  -2.553700  -0.704520  0.841935
O  -1.962399  -1.474964  2.823031
C  -3.264902  -0.588935  -1.429465
C  -2.951736  -2.032103  -1.835466
C  -0.622905  0.938957  -2.052889
O  1.423817  0.521271  0.023150
Si  2.698461  -0.556730  -0.199588
C  2.214662  -2.031870  -1.275838
C  4.001424  0.480162  -1.073213
C  3.370828  -1.162577  1.456172
H  4.912182  -0.103545  -1.247469
H  3.641864  0.838135  -2.043498
H  4.274410  1.354519  -0.473279
H  4.287831  -1.742532  1.299064
H  3.619729  -0.319968  2.110119
H  2.663532  -1.804604  1.990200
H  3.102107  -2.642790  -1.479446
H  1.475412  -2.685259  -0.800261
H  1.808468  -1.707779  -2.239688
H  0.443627  1.078495  -2.240597
H  -1.059990  0.463135  -2.935368
H  -1.075182  1.926538  -1.936302
H  -3.283990  0.060616  -2.311166
H  -4.268745  -0.541933  -0.992931
H  -3.741746  -2.423289  -2.483245
H  -2.008805  -2.111599  -2.385727
H  -2.888556  -2.681231  -0.956986
C  -0.275133  1.797809  1.091794
C  -0.040050  3.039299  0.276099
C  -0.887933  4.066356  0.195140
H  0.377132  1.842523  1.975215
H  -1.303554  1.789871  1.470360
H  0.917659  3.089854  -0.237917
H  -0.647681  4.958996  -0.375090
H  -1.851097  4.056665  0.700928

