%nprocshared=4
%mem=6000MB
%chk=IP1_1ginp011.chk
# m062x/def2tzvp int=ultrafine scrf=(solvent=chloroform)

IP1_1ginp011

0 1
C  2.466611  0.389048  0.070247
C  1.134383  0.325576  0.825763
C  -0.027489  -0.009585  -0.152912
C  0.302249  -1.404543  -0.715606
C  1.706875  -1.567350  -1.268200
H  2.455583  1.265143  -0.589595
H  1.168014  -0.531063  1.510757
H  0.196515  -2.136783  0.093825
H  -0.385023  -1.704845  -1.508693
O  2.685465  -0.759305  -0.812743
O  1.990992  -2.431668  -2.071639
C  3.723711  0.472626  0.944033
C  3.901676  -0.671686  1.946347
C  0.924273  1.582474  1.682778
O  -1.208632  -0.073484  0.640281
Si  -2.831128  -0.464915  0.413823
C  -3.091900  -1.935532  -0.740815
C  -3.431380  -0.891700  2.144581
C  -3.798921  1.012482  -0.250394
H  -2.909629  -1.769935  2.538838
H  -3.261746  -0.061634  2.838293
H  -4.504848  -1.111405  2.142185
H  -4.865985  0.765274  -0.299637
H  -3.692578  1.886954  0.400283
H  -3.482111  1.302283  -1.257316
H  -2.794196  -1.720483  -1.772470
H  -2.547571  -2.824961  -0.408148
H  -4.158627  -2.189110  -0.758658
H  1.074617  2.501440  1.111622
H  -0.091831  1.588778  2.081332
H  1.615993  1.590707  2.530011
H  3.713537  1.436913  1.463232
H  4.582054  0.499963  0.263595
H  3.876974  -1.642064  1.441638
H  4.866821  -0.583772  2.453896
H  3.124881  -0.669523  2.717436
C  -0.209878  0.973118  -1.341931
C  -0.509573  2.410893  -1.014364
C  0.066377  3.455765  -1.611966
H  -1.041147  0.568389  -1.937758
H  0.667913  0.925147  -1.997123
H  -1.278482  2.583671  -0.264677
H  -0.213167  4.476382  -1.367767
H  0.835141  3.329489  -2.371179

