%nprocshared=4
%mem=6000MB
%chk=IP1_2ginp012.chk
# m062x/def2tzvp int=ultrafine scrf=(solvent=chloroform)

IP1_2ginp012

0 1
C  2.203327  -0.037948  0.495328
C  0.722800  0.171546  0.850456
C  -0.140716  0.253465  -0.441087
C  0.029222  -1.103326  -1.145174
C  1.470910  -1.512529  -1.382414
H  2.606784  0.895853  0.083129
H  0.377764  -0.732330  1.371795
H  -0.408287  -1.894550  -0.524424
H  -0.482739  -1.130451  -2.109640
O  2.420627  -1.040462  -0.550311
O  1.794247  -2.285472  -2.259946
C  3.072975  -0.477280  1.675286
C  4.557645  -0.621238  1.326916
C  0.545274  1.353940  1.815567
O  -1.501912  0.497183  -0.103667
Si  -2.831977  -0.428552  0.354240
C  -2.439857  -1.592189  1.789283
C  -4.094332  0.857232  0.892454
C  -3.510137  -1.415657  -1.104255
H  -3.732725  1.438567  1.746910
H  -4.313078  1.556800  0.079069
H  -5.036138  0.380279  1.185799
H  -3.698470  -0.765894  -1.965608
H  -2.833409  -2.213166  -1.426168
H  -4.462218  -1.883979  -0.828211
H  -1.737897  -2.387514  1.516821
H  -2.021302  -1.049945  2.643670
H  -3.362780  -2.078385  2.127236
H  0.921199  1.103952  2.811027
H  1.065417  2.249017  1.466687
H  -0.514498  1.598024  1.910984
H  2.679545  -1.426688  2.060145
H  2.957572  0.261421  2.474946
H  5.130591  -0.927935  2.207126
H  4.709178  -1.367886  0.543921
H  4.973433  0.328699  0.972641
C  0.259094  1.372421  -1.442732
C  0.080825  2.793013  -0.982037
C  0.974416  3.767231  -1.162875
H  -0.387403  1.215077  -2.317495
H  1.287398  1.219616  -1.789371
H  -0.873769  3.018472  -0.511180
H  0.774993  4.787782  -0.849236
H  1.936145  3.582818  -1.636840

