%nprocshared=4
%mem=6000MB
%chk=IP1_1ginp007.chk
# m062x/def2tzvp int=ultrafine scrf=(solvent=chloroform)

IP1_1ginp007

0 1
C  2.401382  0.141586  0.350229
C  1.005188  0.323085  0.963265
C  -0.101476  0.039970  -0.092657
C  0.091038  -1.429596  -0.503339
C  1.494104  -1.778461  -0.961937
H  2.608591  0.982648  -0.324117
H  0.869765  -0.455821  1.726850
H  -0.124280  -2.068795  0.360946
H  -0.588235  -1.729002  -1.305446
O  2.526224  -1.054107  -0.487078
O  1.725679  -2.709838  -1.704652
C  3.527256  0.041342  1.382199
C  4.923558  -0.074510  0.763204
C  0.879731  1.681423  1.669750
O  -1.350874  0.226978  0.564145
Si  -2.920401  -0.352249  0.365523
C  -3.934522  0.741181  1.511195
C  -3.535471  -0.184530  -1.411600
C  -3.064130  -2.152706  0.914619
H  -3.465259  0.847450  -1.770961
H  -2.987400  -0.824704  -2.110982
H  -4.590082  -0.480719  -1.460224
H  -2.561252  -2.844493  0.231731
H  -2.642131  -2.298034  1.914841
H  -4.120395  -2.443820  0.956195
H  -3.576485  0.668153  2.543409
H  -3.879883  1.792699  1.210913
H  -4.989077  0.444007  1.501157
H  1.488935  1.706303  2.577060
H  1.188667  2.508061  1.025739
H  -0.158993  1.846133  1.961305
H  3.325789  -0.822046  2.028810
H  3.484982  0.930789  2.018936
H  5.686947  -0.127166  1.545250
H  5.008499  -0.969885  0.142945
H  5.149382  0.794133  0.134462
C  -0.048861  0.926093  -1.368845
C  -0.316103  2.395794  -1.190327
C  0.387534  3.369928  -1.770127
H  -0.814663  0.519685  -2.043765
H  0.908723  0.783885  -1.883160
H  -1.175027  2.650365  -0.572324
H  0.124737  4.415891  -1.641861
H  1.250143  3.157910  -2.398135

