%nprocshared=4
%mem=6000MB
%chk=IP1_2ginp005.chk
# m062x/def2tzvp int=ultrafine scrf=(solvent=chloroform)

IP1_2ginp005

0 1
C  -2.311951  -0.038101  -0.186586
C  -1.029159  0.034611  -1.034588
C  0.095183  0.796286  -0.252621
C  -0.158452  0.658320  1.277022
C  -0.887212  -0.598778  1.683039
H  -2.605899  0.961617  0.164414
H  -0.681831  -1.002417  -1.104863
H  0.773059  0.733931  1.834544
H  -0.787857  1.496950  1.599949
O  -2.017771  -0.858471  0.989066
O  -0.550852  -1.344734  2.580613
C  -3.512420  -0.696658  -0.860626
C  -4.735100  -0.816073  0.054905
C  -1.247351  0.538330  -2.466583
O  1.363762  0.269225  -0.635332
Si  2.307019  -1.079669  -0.268696
C  2.949580  -1.020913  1.503645
C  1.387071  -2.707327  -0.533536
C  3.733886  -0.946845  -1.486815
H  2.082478  -3.540921  -0.377514
H  0.559231  -2.842683  0.169740
H  0.991812  -2.795343  -1.551090
H  4.279747  -0.006374  -1.358815
H  4.443934  -1.768657  -1.341755
H  3.377299  -0.990374  -2.521138
H  3.437344  -0.066154  1.727857
H  2.148860  -1.180158  2.232555
H  3.692494  -1.814129  1.649780
H  -0.288339  0.618163  -2.985553
H  -1.867572  -0.160897  -3.032447
H  -1.733597  1.518423  -2.498335
H  -3.212391  -1.687538  -1.223664
H  -3.774270  -0.100912  -1.741100
H  -5.571907  -1.273921  -0.480754
H  -4.514453  -1.430151  0.931328
H  -5.062619  0.168812  0.406628
C  0.147418  2.305201  -0.609699
C  1.139029  3.092482  0.201384
C  0.843618  4.169908  0.930337
H  -0.852278  2.741691  -0.497425
H  0.419712  2.377982  -1.668331
H  2.168160  2.739640  0.159256
H  1.605658  4.710447  1.484240
H  -0.171000  4.557523  0.993802

