%nprocshared=4
%mem=6000MB
%chk=IP1_1ginp015.chk
# m062x/def2tzvp int=ultrafine scrf=(solvent=chloroform)

IP1_1ginp015

0 1
C  -2.537159  0.117069  -0.609440
C  -1.161276  -0.527349  -0.832819
C  -0.013502  0.388107  -0.315263
C  -0.284156  0.611722  1.181381
C  -1.681885  1.099987  1.513506
H  -2.656342  0.941415  -1.323278
H  -1.096913  -1.432542  -0.216234
H  -0.173603  -0.345262  1.706143
H  0.420414  1.307584  1.637881
O  -2.699611  0.732604  0.709203
O  -1.927366  1.748853  2.508986
C  -3.741240  -0.819454  -0.770237
C  -3.755510  -2.035035  0.161468
C  -0.998077  -0.946608  -2.301156
O  1.217394  -0.283624  -0.539125
Si  2.413389  -1.052500  0.354781
C  1.751043  -2.593234  1.224999
C  3.673659  -1.555200  -0.947857
C  3.214090  0.100176  1.616090
H  3.230518  -2.230972  -1.686769
H  4.059806  -0.680799  -1.481602
H  4.524509  -2.071539  -0.489475
H  3.504996  1.046740  1.149973
H  2.554776  0.327291  2.459811
H  4.118750  -0.366329  2.023496
H  1.042131  -2.359672  2.026330
H  1.251382  -3.264713  0.518542
H  2.579875  -3.148874  1.679676
H  -1.659533  -1.781699  -2.546377
H  -1.229719  -0.127288  -2.989883
H  0.030146  -1.264975  -2.482859
H  -3.787313  -1.140106  -1.816624
H  -4.638340  -0.215268  -0.595626
H  -4.696359  -2.582641  0.053503
H  -2.943229  -2.734763  -0.058532
H  -3.666391  -1.727729  1.207711
C  0.060110  1.733274  -1.092002
C  1.136824  2.678677  -0.631802
C  2.190356  3.040629  -1.365692
H  -0.910577  2.240664  -1.011077
H  0.215474  1.500652  -2.149433
H  1.018402  3.111798  0.361104
H  2.928694  3.745655  -0.994897
H  2.348003  2.649136  -2.367999

