%nprocshared=2
%mem=6000MB
%chk=P_ng_3ginp004.chk
# mPW1PW91/6-311g(d) geom=checkpoint nmr=giao scrf=(solvent=chloroform)

P_ng_3ginp004

0 1

