%nprocshared=2
%mem=6000MB
%chk=P_ng_2ginp013.chk
# mPW1PW91/6-311g(d) geom=checkpoint nmr=giao scrf=(solvent=chloroform)

P_ng_2ginp013

0 1

