%nprocshared=2
%mem=6000MB
%chk=P_ng_3ginp007.chk
# b3lyp/6-31g(d,p) Opt=(maxcycles=50) scrf=(solvent=chloroform)

P_ng_3ginp007

0 1
C  2.443338  0.346571  0.272099
C  1.074265  0.321428  0.967763
C  -0.041324  0.140935  -0.101173
C  0.216452  -1.200027  -0.811066
C  1.652797  -1.453763  -1.241170
H  2.493636  1.219172  -0.389632
H  0.936194  1.310283  1.419054
H  -0.037290  -2.019589  -0.129930
H  -0.411127  -1.321372  -1.697828
O  2.651793  -0.816078  -0.593431
O  1.936422  -2.269465  -2.093290
C  3.649148  0.398612  1.208963
C  4.975305  0.625819  0.476929
C  0.991125  -0.720416  2.096393
O  -1.284402  0.139829  0.587699
Si  -2.835125  -0.444564  0.299988
C  -3.455866  -0.065174  -1.442577
C  -2.916934  -2.308509  0.591374
C  -3.892623  0.450528  1.571055
H  -3.959709  -2.646289  0.564192
H  -2.370574  -2.876137  -0.168918
H  -2.508376  -2.577402  1.571438
H  -3.854431  1.534227  1.420737
H  -4.939803  0.136263  1.498428
H  -3.550358  0.241019  2.589820
H  -4.484173  -0.430341  -1.550370
H  -3.465233  1.010540  -1.645170
H  -2.856857  -0.551702  -2.219677
H  -0.034191  -0.794739  2.461086
H  1.314343  -1.713995  1.770280
H  1.626814  -0.429879  2.936388
H  3.695416  -0.530870  1.785748
H  3.474938  1.209992  1.926710
H  5.807935  0.657094  1.185941
H  5.169530  -0.176399  -0.239768
H  4.967402  1.574186  -0.071963
C  -0.061550  1.282633  -1.161429
C  -0.225959  2.676810  -0.621413
C  -1.234844  3.493910  -0.927341
H  -0.879451  1.064976  -1.855314
H  0.859766  1.230881  -1.757835
H  0.555443  3.043886  0.043278
H  -1.294503  4.501462  -0.526396
H  -2.034084  3.188196  -1.598397

