%nprocshared=2
%mem=6000MB
%chk=AT3_2ginp007.chk
# b3lyp/6-31g(d,p) Opt=(maxcycles=100,MaxStep=1) scrf=(solvent=chloroform)

AT3_2ginp007

0 1
C  -2.050665  3.193434  -0.151070
C  -2.556276  1.784059  -0.485987
C  -1.894110  0.672561  0.350437
C  -2.670064  -0.672792  0.329983
C  -2.948315  -1.166889  -1.097524
O  -3.465883  -2.499622  -1.128552
N  -0.512170  0.461156  -0.123890
C  0.420195  0.052369  0.934666
C  4.461299  -0.332367  -0.599790
C  3.765685  -1.475012  -0.204996
C  2.470510  -1.330487  0.280562
C  1.826081  -0.098521  0.402201
C  2.573064  1.006067  -0.011936
C  3.866759  0.927843  -0.507615
H  5.472047  -0.423322  -0.983232
H  4.204910  -2.463875  -0.267620
H  4.382792  1.831626  -0.809976
F  1.802630  -2.443248  0.665099
F  1.980969  2.226471  0.073511
H  -2.530447  3.942283  -0.788866
H  -2.270744  3.450392  0.890918
H  -0.968377  3.294439  -0.290897
H  -3.640049  1.754808  -0.331758
H  -2.389338  1.573152  -1.550072
H  -2.000694  -1.417673  0.787804
H  -2.031262  -1.085296  -1.695594
H  -3.717186  -0.549732  -1.574820
H  -2.776918  -3.080642  -0.777804
H  0.434196  0.767113  1.776810
H  0.097726  -0.908062  1.342284
H  -1.887052  1.017381  1.402461
C  -3.950309  -0.632268  1.173558
H  -4.656965  0.119251  0.803795
H  -4.453283  -1.601926  1.135664
H  -3.730743  -0.398228  2.220786
H  -0.161864  1.330204  -0.516657

